No,IGN,Fame,charId
1,Sacrilicious,49098,c61bdfb2b01ee5708f4ea572fef2db9e
2,kaikailok,48569,6e4895a973d020e7e546dce2b04206de
3,DiceControl,47801,4e49f9d96d2e3746a0126a21b2e72e2c
4,Saphrina,47587,c36cd1c7f770b81ccdd59a8ef1f96fc9
5,PrimroseRuby,47477,19cddb9fcd088a37a0d98b9872210ed9
6,Milkingaga,47153,6bd6cabba818f2a31de0f5e729ba0bc0
7,RiskyWine,46600,3adf4201adafa6cc0b70918d14e3e3ab
8,2xYakuman,46542,9db4fccf8c9be11bb4f367455dede972
9,Aoihiganbana,46532,3e687b9f873e6b3564c093d01e8654d4
10,jlee0,46409,489a3f31350dc496674c945d44e9365e
11,rosefoxaa,46381,fe405ec1a10c92b53334e5f4976b39c1
12,Darkstra,46376,9608e4fc38404da22a6acb21ee745b0e
13,Bochum,46031,5a7c95ab378182b85dba6b17b2de97e1
14,Teaplease,45920,2eb3b5651f3b5fdcb77cede79564e3d3
15,RyuzuKing,45915,214991cc8ab51eb5ad0562e0fb7f0dcb
16,Stechiel,45906,56e58c57ca54fdae9a70ec099ad979f9
17,NovaTheLosti,45858,96ced72632efd082198c1f9b84a4a928
18,PyrosUriel,45518,a8ce8cbfda8aad07fe12d8366f2869c7
19,IrisObsidian,45500,b7066489a57dfce153b55cc92c948bdc
20,Rozaeo,45407,d0ce0f6fcf62002af5185bfb3922c3a2
21,Stupre,45329,b0e44d86cc86fb72c83f59db647b531d
22,Alicebong,45255,5c8e41e8e7b3f161f38e5adf2f75c7d5
23,Armugogis,45175,b0f5731950cb846a3ff4c25c4a2b301f
24,ZeroDeSade,45126,363d5718b4825a6ea532f2004365a3ae
25,EroticaJK,45010,3c91499c33c79ee064aa3b116f53b588
26,JeanneDA,44815,f50dd779117fceb378054dc01d3dd2ba
27,Mirackle,44740,2fe11e006b5eb37afa34066166008120
28,SeraphAngel,44729,77308760064abe878947ea67bfaa88c8
29,MissAyase_18,44725,6f94ede4b213b4136124332b4aba0cc5
30,Mafuyuki,44685,f8ab06afc06513bf5869df008b16fdd8
31,SinnerMari,44560,d0bfb2b17175f591807c83c75406434d
32,KuroDatenshi,44534,9160f40328aa5f1001aedb4d26c4e0ac
33,Allure12,44468,f8e9bea07ad1ab6c37c170f64794dee9
34,XuuuuuuT,44464,83d262238b71672f4b7551319d591512
35,DevilSquares,44431,6c9adbef4a30f50070a116d79552f4cc
36,cCuteBakkie,44418,189c79a0375f120708d240dd11ae8504
37,Lorelei,44393,82214dbf803099835b0500f04279750b
38,Xuuuuuu,44386,bea74ba786c37f1ae0bf6fe4f572d5bc
39,CoffeeAlter,44301,c9f990a74bd059206ccf76a9767529f3
40,Oscy,44276,0e38716ed70287307f0fbf397d69d080
41,Zedsss,44138,00729026e6be1afa898ad887352b4eac
42,OfCoupons,43963,ad516722187d1e59f24f9db67e140fca
43,SetsunaMe1ou,43918,3ae59cb69bc013c6dd2e7f604e35a08b
44,YaRedeemer,43884,1bc50f28c2166661ccd12847a8243207
45,BloodMyo,43849,8478af04d741ae6fe4afa0afa03b6760
46,TgBaka,43665,1235f34432848b8f1f77fe492e61bfc3
47,Miliwix,43639,0e1ca41e7a44afeeeb0fc175f1ac6db4
48,BNumber,43620,f714eb0f00b46b0e878743d913a49b0c
49,Baelynnia,43522,02921fb523ff8a1f60f96c3fb01334ec
50,Berubedo,43458,a61ca376ccf756a3e73f394962c914c9
51,Lilsin,43411,58152524efa4498651b8339a9fc3e840
52,DarkJones,43316,005712cd930ae7f8c0e6a2351d6246dd
53,DominIch,43089,c957bc2c0be46d9c60b51fe1e6749d42
54,Altines,42988,4a804ebcd89473b40c3673b7a968386b
55,FalzAppregia,42918,3b526931321a1b8ae0582432da155034
56,Derosa,42897,ef3afdb33ac5747d9cc78a8290504320
57,NightScythe,42871,464f261b12c5bc5173f4663d0e7dc5b6
58,Meinus,42684,e937226360d3bfa1ba82878e4970b54b
59,TouchHer,42317,6a28d90625acaab53310489d5e16adeb
60,Andromaleus,42289,4e22d7a6cd995efd527f327e5f475689
61,Dishonesty,42280,93fc5efa52885ba32374b6a71ba61ac2
62,newbiepack,42215,436e21f5b7eb405db748cb61c6637a91
63,Justinne,42207,a479a1ba98b86b2e515985b37667af92
64,EmChanh,42130,5b58ef75e42bea169fc3d3451a6c9398
65,LilyVander,42077,4d103e7426990f898234a44408d041e6
66,RestiaVD,42045,95648d4848406d9b09f1aa8cefda9148
67,MinPHigh,42045,c25af0fe3cc2ec0fb28b54d2bd563040
68,DyunMistress,42018,d16cd9beb396a199be460b3becbb3ee5
69,Misblead,42005,45381b0b77a4da5f3e8ef6dc38fae8d1
70,Debauch,41966,fa75f083a1ca935a1156220273e67aff
71,Mimise,41900,6d8d9c840270f3774763830c9621e4f6
72,Brynhield,41875,40ff6b0b7f3830ab374f020c7a296f16
73,Sephirna,41861,52fc4a728792de6b3b733655df0c3b16
74,alwaysweak,41825,db1b62781c90bdbef51e68e6517c28e3
75,Yaongnim,41743,15cdbfcb6538c9795ab6a43d4c7bfbce
76,Curtina,41679,255fbb656d10ca3afe7a89235e594fab
77,AnneRedeemer,41639,9058040cecadc52b4c902175a4127e5b
78,Verbal,41618,8046b2e7d965d226cf99bd2fd50ccd1e
79,MkSkarlet,41606,845aa3a65b55ddf9a97c425ffe3ca100
80,Aniny,41572,37dd6fb866b577685fd294b42b42f4ec
81,CalliOppai,41537,e4552331517f0a8a686abbdc2250a999
82,Najtress,41470,1c1613b438ea68382dd9b2c11a8cf6f0
83,EvilGarden,41463,8a71787274767b23b3e7fa6a83331b2a
84,MillionSoul,41430,4a6ede5f50b6b1272a8664baf5fe10fd
85,BugSteelType,41358,a699832b39affda12be2136271b342ca
86,KitzaMoelest,41347,6abfc2bd3a4abcc4eebb4f5803f00334
87,Sirirena,41211,87d9a2777e70427b593290fec8ff6ec9
88,oXMiraXo,41211,3da796900a2cce0fb822a41c577665d9
89,YoyoHime,41174,8a6eda91573e59efcb20704e7366201e
90,NegaRiseko,41172,15ec90d67a3064889ae6eee9491de136
91,Kurayomi,41127,34197d0ffd4eaf77649298e710d86fd6
92,Vimeo,41102,118166e41d3a215eacbf2608b81e89ad
93,dogpriest,41088,f3af1ecce898b16ae1415a63ea7a0e8b
94,hellots,41005,195dabec5606aec5f9eef001885d0d69
95,Aiymiko,40987,9e4ce96c5f15982dec96a6362e62e7a1
96,Temptation,40951,0d743fbb0e6a0aa5a124b47fc0dc5763
97,Gailierr,40872,6a90d89378c9b5e31b22932e4f87a452
98,Obsydia,40864,2781cc846ce4e65f72a0d920f800996d
99,Nachtbringr,40861,f46403d578ee4f603ba9e7a639682dbf
100,FrankyZM,40856,b0a7bda51f0eef04e34b7eeb05f61b58
101,Alynlyx,40848,6c7181253cb8a09dea673c74a5dd4f3a
102,Luticy,40847,add2f58ae8445a54a9e1455db60a70a4
103,Melezo,40825,fa4508ad8db33789765e222cccdf4050
104,MaGuMe,40754,18a9c9ab55b4a1854f36ea7c37ebcf2d
105,Enepsigos,40706,7ae11f5425b8342cf1cc8d693afbb3de
106,FiannaRiasu,40680,73e9e670f3f8e1a4241cd81f1ea2afe4
107,thisnun,40635,3e5bd3838216d0afb684582413bfb69e
108,SlashNSlashr,40619,cb6e801d9d9aeb1d57caecf797331f83
109,Vermilli,40509,9a55b679b8b15874ebe08913244e29ae
110,AmIEvil4g,40479,141a564ea0c50e661277521feee7a722
111,99CentHo,40413,3c3a33c56b78c84a38c06ce1db747677
112,RedeemerXI,40320,3069c70f233a5f615f00c2c6d7212a83
113,Me1usine,40316,01b8822dbf13862777a83ed92d959b4e
114,Amartia,40294,04d81a5671d4a01aaa9d91dc28fca687
115,ScytheRunner,40280,4ecb24b1c0d6dddd96ce37c9645899b2
116,Yxnnie,40241,0cbae8eb18f22ba17136a0bffd30a093
117,aephrodite,40155,2b9abe2b240109a9dd2861223e3dd585
118,Rustikal,40154,f1f7237b703c65e03ac17b850694af11
119,YuMistress,40136,dbc0ca7c86ca148b4794ccedf39a9145
120,Hydroruby3,40108,6bb8d96b206841bcaac3a92995eda8f5
121,Trucinoxx,40054,6808181c012cb27dff58f7ab762c0d80
122,ChiyoMaid,40041,5d8b7607cefa8fe33c612e97c6b7831c
123,Draefendi,39896,33875ada20db7433818f783d43bc5408
124,Strangulate,39893,d86ae06567ab6473c6daeedc756b2c24
125,Ybrid,39866,c86886f6601fa68378acfa0488bf6dd4
126,SinofMine,39810,d40a33cb0a76041f6a228b7f7b8dd004
127,Danielaleon,39787,10be79f76b2c9bad9f91566a5e1451b4
128,deathrouse26,39718,8f3c9c3a744e912f9aa1595419093ad0
129,DietMistress,39718,a46ab3ce7ece9009848e6cebe59ca332
130,xXZoeXx,39696,88eb311a7e1b075df7ed55362c9cf1d4
131,Laddydead,39665,6f8afa58cf8a24c1a6670c64bcdbd2d7
132,MisDar,39634,0a666e450426171ce0b266bc3757b97c
133,Faluomu,39586,bf3d3c220a2b60c343d27b5a2dc13c8d
134,FaintWhisper,39518,0512d7d31b88afb13472cb383028eb13
135,Gonghil,39493,921ffd6bf8d829b670c3c993994462ea
136,Mistshiro,39451,8327524afc985e7d0cbd2b8a14a22b15
137,HeresyChan,39437,bed08f512bbe83e5fe7212551426105a
138,SinnerCoats,39404,da75d0b71dcc31cf7c38f34927986dcb
139,Extraneous,39392,ba8b5c8d131c56feca94a084a97a743f
140,DeathMis,39344,2608d58cbee8b71baf6b9af12e9f2187
141,Lowemon,39272,4c44e4edc466e1f2339aa1ac4a3851b4
142,UltramanFive,39190,42bd61db4e546763cb12668a4b288c46
143,Shinyfruit,39173,115f14f289eb2363f1d698fcabdabb0e
144,Rulutieh,39059,cbe719a9ee81720f0fbc17b660e2bd61
145,PurpleWing,38983,b8c96b278bb106c34dd8b757424923da
146,BloodyCircus,38946,9aa3b2c5abbfadaa5f23f04c1d1b762e
147,DemonaFleur,38872,cb04298d4425f1fc9b9508b31cadb84c
148,BlackThought,38848,74ddd430fc368d916dbb038cdf420922
149,ShadowSiry,38836,c2f366e9771ffddbfcb9819516798209
150,abets,38831,2c4617290755678c3b331351ffd23e1e
151,Dasalis,38777,b7a6ea32933e51bb4775c69d061b582a
152,PiMistress11,38731,cae6f418cb9e36ceebb51ff3c6d373e0
153,LadyYubel,38714,626c8b731a0c06546999eff6a534a269
154,MsCalabreza,38688,678ad41a70e8aa781eabe922cdab20b8
155,Death.Scythe,38621,67bdfae5f8ff5baf176472ac6812c1b4
156,xXChitamonXx,38588,2fdcebe0f6d947d0375f95502cddd579
157,Lamirra,38582,ddeef9a638f1d761c0ecaebebb91e72c
158,KuroNephilim,38548,0cdb3020263c1ff4d287ef683a55e3be
159,Martice,38529,c23793e4c67c98dfc8b65ed12dfdb9c9
160,MissMissus,38488,a5fd415585e6242547f8e453d3383ddf
161,Crvsader,38430,f37db89fedbb2c3d22f0982d881f4550
162,Shigakuru,38428,43d103c7be20476317727a75404b6f5a
163,Alyssia,38426,98dc987635b66a92c17ebc71c117d2cf
164,LEAVEmeALONG,38374,6e75b9a2b1225716960805e42c22cbc2
165,OuterGodNya,38343,9ecfee97a594aa8103d671f824a765f4
166,Shyxin,38329,502959c8062826f336f52e671fbf5bb8
167,sukurakason,38301,5ba9901442819f70236f400ab3f0411b
168,Sabryna,38289,946abd044295b3b81f89b9428cbb8f75
169,kiraiza,38251,e1f59b672550f6c39458bad026e5ee42
170,MissReimu,38195,4da615b2297c695992e14afc1b863686
171,Vamprella,38192,14f595499f0acfdd813a1637b0d05887
172,paulina123,38175,810f4ccc4f92510a39ac17fe8de334c2
173,Maudire,38143,6fca98a7c63826725935caf082397298
174,Vespre,38111,0ed459d40b951f573f3b61bdf7bab986
175,PandoraSin,37908,3869b81d9de4d3027c72cbeb9f573220
176,Syndora,37820,a7cec97e5597e1012aa951bee6613fc9
177,HallRedeemer,37776,685113bc98bed2274a1b934ccbf07764
178,Succubabe,37763,07a66c0d6d6ce8f1b5d3fc660219ab45
179,Nyane10,37761,d0077370d0f4677db7e79963c02b5677
180,uverM,37758,c9dd1d34448c498d10c2418465667132
181,DemonTearR,37744,3b2f3019638cc16b9cdd157a95337bf8
182,TBlackHeartT,37740,d615fe30a21c1d8f972999d4500e5619
183,MyAngelSeras,37715,2bf3fe829fc1267298fb07c73ec31ba4
184,VivuMamo,37714,ab48ffd0f055e8986d9f55263457feb3
185,Alecsa,37711,e5fcbb7641929fe41d087b7ceb3beed5
186,RowletSlash,37664,0e9b5b62dbc83d7467ad2624126012c6
187,Ivillis,37617,221f06cdd7b49b54591b592bbef427dc
188,SoulDevouer,37612,babe2a27856e930236195647bfa9871d
189,Focus0624,37610,1db7c4c948d5561f04653594ad56719e
190,LieBlack,37605,daf6f01b802d13fb868033b03c124247
191,ItsLuna,37547,6e0e4836603c22ccafeaa0d99837949b
192,Virgyn,37502,e18471cad6449fa3d4d66d6335d35041
193,Fibular,37501,dd716e2a5a3c028b1c9142260afb8198
194,leidywon1,37453,a92d1349bf5bb999964e5b14c3391306
195,Routh,37450,7b933d33f3ca33900b324315fa74db04
196,Skcarlett,37409,db4684fbab98f2a4e8c99af51d33eeb5
197,YayaAunt,37401,b585c90844433052cf7f09fe7b196625
198,Nabalana,37400,5bcccaec3ce1d65e3bb72bf89cddafaf
199,VerosikaDay,37390,120a7a3ca48c4431aeb9745fd557f4c5
200,EvilPrayer,37325,d4dc1919d1963f96b51df8d0e750d810
201,Hijyse,37281,b08c45d643b1a1b1cd6df31b8eda4cf1
202,Adrazteia,37270,aa7f92bf0f5c1784b051d99003c3fc63
203,KenyaSS,37260,3f555b33a84e10097cdf59d6fb3f6e8c
204,Asteliya,37186,76e461a66763b93c9c726b62792bdee1
205,Capuccine,37186,6b0d4aa40e807a6ba4dbb905ede800d0
206,Nightlix,37160,8dc3d311da3ef5aca54141582f03a5ae
207,NeguRovu,37148,decb3d086ade32c3c091b5c065a0af16
208,AnitaGene,37123,e188fe45fb6db47173fda42b11ab064f
209,Jun0n9,37093,b121a5b0feffb0c5f213882b1ae883ad
210,Mistrezze,37075,203eaa7968d0c0c1500a6d309e73f768
211,Maybbyss,37034,11b5cd55cce83679289c711265da187c
212,Tresus111,36998,24963321e9b9dd0478dfe750444c549f
213,NiNoON,36950,f69133979c1c5af9d4b4200c974dcfee
214,OneeSin,36923,946cf5b1500e78e8a3d095fc0f85bd95
215,ThePvper,36894,6ec4506c15c410f5c3d45e52e27080b7
216,ollDUKAllo,36861,9f8cb3699d5452179ef65be1d086e33f
217,AmongBoobs,36848,dba71f800024e6683924ebec01bac461
218,MyDoll,36843,4cf0e1dbe9e4060757dd018767d32a75
219,relsoy,36832,98304d3b99f781b2f9d613523e2e9138
220,MistHoes,36821,37e179fe1af2a041b5f1d63ddb295558
221,Valtess,36815,c69f80ae6ca1829f757c79b75ec5f74e
222,LeisureDay,36799,3a698d3dfdc0c2163fb21ea69c3e3b6d
223,Yohangelliz,36785,e32f497317f7df038a2b0d9918a3f96d
224,Astreanna,36785,0b642eac5db3919619e6cb886562beb3
225,Meichel,36774,5a02f738a8e838f1af8a991382ba9b59
226,NekoSin,36753,8fe1000b1855dd1c9883aa966903e22a
227,alize10,36750,099634f98407ae618126ad3d2621fc68
228,SmolThot,36735,c61086a3463fd6ee01b4058a504be9a6
229,Adiosrune,36717,4f395f3dfd631456c2082e892975e01d
230,Rimyuelle,36661,971871f230cfb5c5e01393617ed7ed1d
231,misspk,36657,5e1d76cbf68dcfce150d2e099982aba4
232,sindatron,36643,274dcd6344b2b17006f9b7f2f3b8a914
233,Catherine`,36624,7c35dc67cee06f732914eab2d02e70b8
234,RiceCoker,36608,3aa5d8682a83c595577d98e4ea6d13fc
235,Naleesha,36606,98dda2083d730b1be7797c43ae37696f
236,tusnalgasfri,36595,629848a1183747600c4e9ec576002a10
237,CrisMistress,36559,fd81ec7e62308358e10fa2beecd2fd9a
238,0zen,36501,e8f7243b7d2eacdac15a985eb4398a27
239,darwuin12,36446,16f15faf43c29ecfec0d0823a701bef1
240,FalseHeretic,36416,5e57bbed31a1bff4a1a79a9d11994910
241,Eliredee,36403,a43627f5d2f4f47a52504a0d99f601d3
242,xlKanadelx,36371,21b002f7f7c5ac4881a41edf85005438
243,MiniQuiche,36367,d611f365388b3c81c79542fb7e2a2923
244,EvilMist,36305,f4aba450e3c656aacc73c209194dd07a
245,LittleSisLyn,36291,ab037a013f2fa9398c314a4ed26c0103
246,Lilyithh,36274,f8b6a21d30cd44b5ed8cded7abad627d
247,Newjoli117,36265,519f1e0f551cd6a9df7591c04a8d4940
248,Aizenne,36259,1af646e6aae9536bdd03744864a96031
249,CrimsonReap,36257,0ebdc9092bd9b78488cad31cc0b2bb8f
250,RodionLust,36169,b6d8138948aa9005f032bfd596d9a5ec
251,SuccubiMafia,36160,11014f95c24236535b1143d0100a0c96
252,Suberup,36125,b9d8cc810f07a1bb6c20b2fbd4fa01c0
253,HydraLena,36112,93f9ceb9383c9490fbc6968f499fb0a8
254,NaKrul,36084,d528194afedc5beec0e348301639fc07
255,BananaWA,36080,9be90963c15da21f0d3cc99802dd4ce9
256,Loli4Me2,36048,608135f1c213d69be02327be4cc083c6
257,JiaNai,36041,50f4fb0c7414b2c99fe0c8acbf4ad29f
258,NatsuMata,36040,6c975a59d430aa91ae3f683f83072653
259,MizukiLunax3,36026,e58d927516f3de7d0cf47c758ff67924
260,Morguearita,36024,3980cd7533d9c8e6b757ae3030a7b52b
261,NotVis,35998,e6067382137d1666e2ac8426b49a4e10
262,EvilChick3n,35980,3483c9cd10959abadd7270ae7e4b86a3
263,Vinegod,35976,c1bae3dda57598c090a50588f2b09f68
264,Tinii,35933,661c1ad8c1c82737d45af7c176d4be60
265,emlloy,35921,4541a175a592cc03bd5fe50cb9b4d20f
266,Ryuugasaki,35905,3c159b9618a7c9fdba8b77a1bc6e6e13
267,KiraNoLambo,35901,33ed544c02bbce7ac1d951e5221241d3
268,SlaSucubo,35846,1a5f7f1f54a3fa2c3275f470b17a7b26
269,TaintedRealm,35835,b8144f926a681aeb159883995627456e
270,GenoBeba,35835,308143b8be525337a56a31ea186df5b8
271,J9DaDarkOne,35760,3380ec31c7ee3cd7bc5d575025f47f39
272,Azuriia,35758,0018e677746e72ed1058789444a19f0f
273,MyAngelRedee,35753,77c150b31977a735963fed0ad6f5f99d
274,DarkJiggly27,35726,42114ec60880dcc5492448c78202cdd4
275,Rubisky,35702,154b036342567c4d209513b64444f8bd
276,Severlake,35699,0b7fc0853deae9bc8ecac6daa3af76be
277,FracturedVow,35683,7b6304a380c1ce8368217aabecc1a216
278,xKurumiDMC,35679,44b7f10d2c7fbcbf25101e9ffd912819
279,Churipuneko,35677,f8e2a917dcdb84f520052add1830e808
280,AdonaiMelek,35665,6cf52c983dbc6689b02d54260ec3c485
281,JestG,35636,6d12e54989faaf0f433292f38109ea68
282,Hansonii,35591,72be211d0730b04c46f84df6b2f228c5
283,xAyMistress,35591,996358883b7695ada9d02674ba5cf77e
284,Nadleh,35572,42c4f8551afb9a745b0b11987ef56fa1
285,SinnerKiller,35517,3ad5aee6bd7bcecae6aea8fab6a84867
286,NeoPersefone,35503,2457414ddeba82c59f9015c0eb517537
287,PienelCu,35502,9eac70a37890f36af1f6539dee94f171
288,Kindred1,35487,ba005c502b37e8103511bed9480d2fff
289,Cecil33,35450,e7381271114770f42b48048df5da1dca
290,ISSharum,35424,96c8d6bab2710107d15c859d5f56bf2b
291,LilyAngel,35416,ae303a47f70740feac4cd141a103e51b
292,GrimFantasia,35411,74cac4983ca8510df7745c7d074da0f4
293,Halis,35378,d5089e5437c2aeed64f0c9d78f371df4
294,Sebao,35378,2303a97b43b4397dc5cc4131fbe3c285
295,Batxita,35375,97bca0a07f1ebbe25f7725941b4c7c62
296,MelisandrexD,35366,ee628a93dfcfe9acf2f303c8f5da5750
297,Astarthea,35358,96ca45e1e3196006b80f5550d0b98888
298,Luvika,35355,7aec59880ff10ebca6d1b6161b75c8f1
299,kirazami,35350,4b54e677467e088423f7b149aae598f6
300,SexyKiss,35345,7f3fb4ea5a1790c9a00125393ee1c840
301,Yaehwa,35335,32987608c69cbc9d582c93fcaee071cd
302,ZeiosIgalima,35333,326396861d2acf5d57a885777bb92431
303,Hatsku,35301,e970029faa7d8bad046704a4f3ff4a3c
304,Smallfoot,35301,e75d5c5b2a1f99fbd06b054f603b9198
305,lucolala,35282,6c3f61ea2cd87f965cc037717c471a6a
306,Misthy69,35257,d1ff33d9361ad49991b4e220a9f709a8
307,MrZFromJapan,35217,3592c99372ccdbb48008b70f9b7ac413
308,Hydaelynen,35206,a3476f6fdb72dd1c15869f83b23aad1e
309,MCLyte,35192,740281e2b5734a386c80c1429b51743a
310,Kuramin,35178,0bc8f3b5141f5dbdb7890f7f53570811
311,SolSanctum,35172,43348bd365b6fb972a9c1cdd493f020b
312,myloveboiboi,35167,7def425ccb01fad7bb34687b4eff3442
313,chaquira,35160,80562c809ab6617ff324b5595223067c
314,Ariocht,35122,8e131080990194f5f3204b2fb531696f
315,VanillaDemon,35101,68b3ba50225a8277546173d38c987f27
316,RousWalker,35101,20df6fbafc63aba9aa68a689d0b47010
317,Gravim,35090,5706f759dbdda28d8ebd279cf1de6fc0
318,LaTipaEsta,35035,99b95a67fee29d701bc7cd98266f01cc
319,Ms.Mori,34975,6aa5ccc8e8e188ff69a969d01cec064f
320,Veniality,34949,d3cadac9a480c9f3d1d3ae6aa342656b
321,RCCTMis,34938,b12b3dc9f991b98ba14ab2464d8352e9
322,SayerPriest,34925,ef355defe71b1334caa4f70a58b38349
323,Pdoll,34917,7aa79b786b5787729f9de3ba892663c5
324,llSoileTll,34911,96038376c6f0ecc0d863de6f01e44f7c
325,Xiaclover,34910,8d0d5037226b90917f432aa074bf463d
326,Rylith,34888,aa8170a7b49e835a0d577793a2328ae4
327,littlemeo,34867,57477c9c2545027db7f1064ba5c9bc90
328,SoleilNoir,34862,877a5dae551f69793d2c0cecb970c08a
329,EviLHihgXXII,34860,ad2b36e4d45b1e3b405725d9ecf1ebc4
330,MewAyumi,34817,85e7e76dfc1677134f44d214e34b256a
331,RulerBai,34749,aa26865ad91f61500c077109ddb4ef30
332,Kynell,34724,7d2eb119ef4e1b2d644293e8ae96a1de
333,CleavingSin,34721,3c5d18975598fd56d4348804807d86dc
334,FakerMistres,34705,d35dd772da5cae288e4a9dc8b11fdf9b
335,CashAndra,34703,8fd8a3583022048b3474b5b59baf6e08
336,Corbette,34702,6a975417d4531b2937f48bb1ef2f1a72
337,RubyRose,34680,2781829c744d520752d2be10dd86e4f1
338,LadySpawn,34651,e70b4f06c5916cd37518365f39fd372f
339,DemonAkiko,34643,c2311ec8e18a6fadae46d3f81e9f29dd
340,LadyofDawn,34634,4467fd3c848a8d17c0042f1a6f4f488b
341,Kataclisma,34628,ca8e110b226b4c50ae74ff56a0ed4180
342,ChisaiOmango,34573,e16451ad0866c846e4baa1cbe734ff3b
343,o0LUCY0o,34543,2c3dca8316db8521ed91e734456007fc
344,paola35,34507,c5fa01b1edbf77391f454f5e6ed5c8a8
345,QueenMystic,34487,771965d2f8d69ecb02fd455a77f90813
346,mystrela,34415,ee0c7eedee473120f35283344e3e4358
347,Hyeorin,34406,4befec067fa40d2a23311752f0069ced
348,Franling,34401,671d4a1fbd98ba61e342a26395564254
349,Momocia,34364,caf76ee27d63547e2af0b25f0254bb53
350,Domenech,34341,1178816270ee142e7a018beb60a86464
351,MapWork,34333,2993bb44310ed8ee42f55b631b48d448
352,GinnyMistres,34329,d0ae017b153206fa7b44f2413cd4c478
353,comotedigo,34328,4647448b89050f3bd1d6de3ce1a7de3f
354,Taweno,34322,853cc464beb1894a2735bc55e1b680c7
355,PurpleD3mon,34322,b1979dbc229db61c69ed2d0b0a821087
356,Chiizurie,34312,abbf43ae11f85566301cf0e2d3cb8a33
357,Deliaan,34277,152b25c545fdacda7e659bd69c5295c1
358,sharom18,34275,0c0c7a53c0ff6251de9f11a8ca59aa22
359,Xuanji,34265,2bf07b6c1a212918d6022f96f20d995c
360,Bravefate,34256,5b363ddb5e08d9f0e2f20dd6f0b03aab
361,DemonHunting,34238,1122ca012d13b0d810ec15bb498428c9
362,HarlemQueen,34196,4659a67130e8ac4cf07bd6baffe8ff04
363,Ahnenerbe,34180,75a8df9688ac4032d9772d47b194f074
364,LadyVespa,34163,92693350edef719608992cff88502403
365,Zuldid,34133,572a64a84712429f729d3b1d7761a6bd
366,JokerChlnk,34127,0bf5cf5f54674d03dc11d6f195babfe1
367,THExWord,34085,57dbb437539efd7f5d651651323d0847
368,Naysein,34084,8d64946eb5d48ed348e9bcece615a6c2
369,Dheva,34025,d63b78e85e3e0b2a9b6cab52b0c1d913
370,~Rose~,33991,09c17981bef2b3d822c8f4d896d85539
371,CrossxMoxy,33968,a2aac09b5d0117b47c3f4f56e781efb3
372,Verelys,33957,294cafb3831fd243eb33f7395f2c7960
373,blackred19,33951,173141a9166f4bffbc6da306553e4c90
374,SinsMistress,33943,88e642fe72b13b3e6c89a414480961dc
375,Sinnisterz,33917,4668e0c8b61d15bdaae11f6212414f14
376,AmaryllisXVI,33878,ff65c982e3510e5e41f59a09ce930b0e
377,Karmeleus,33827,6f5c7ee6ded009a26fa468c75bdc345b
378,Miittsuha,33817,c0bfd0c801d718acf74fd299fb87a240
379,Arduna,33807,c695c5142bdd334273d4c2133fb7d9eb
380,RoxyMarigold,33799,435cd8f27548c08ca281ecc29d704278
381,xasdf,33779,bf2374f120fe9dfe62e5b815c508d10d
382,Alfstanna,33747,664d0082bf570d9911d5a470e897375e
383,Eodunagma,33747,e865e7fc28eded9f2a8c57ea1d64aab1
384,trinidades57,33633,012702bffd90b0727907dfec94d7d669
385,MilliaR4ge,33618,6367bfa75649104e514e3c47903a1e9a
386,SuccubiKalin,33600,617094d5580a3af2e92e6176cf5565e2
387,xCrusachix,33592,be53dfde1ea62fb06dae3b8f4090cac9
388,kvngoodspeed,33590,14975311ba2f3607885466d1f35b2d9b
389,Makozinn,33561,535e58aed9320a8893e58611a156d945
390,NatsuPriest,33541,ea6ca3d2071a30ba60c3d39f0926b5b1
391,weifeng132,33516,a050339e4b99cbfd49cf0432c10cc3b1
392,Axtrasia,33511,ad257644ca97740fa5c562be12ca888e
393,zKiriya,33509,9c2254321c2aca26935c7f5bedd04c87
394,Yumemamoru,33474,d3fcfd612f94871ba20cc7c093477a2a
395,BegoneThott,33451,35580e4e7689fbc6e006b5f374be3d42
396,HentaiKishi,33395,8f5e7cbb80f069e98d2bc6dcdfca172d
397,AideenFia,33357,19395a67f4f0fe3322359f4ea6a78e89
398,Hieeeesss,33354,7a24d87925de472c8bcfdbba2fbbbce1
399,red100,33337,ce4add1aa4d1f31a90c91a208fededd7
400,taisealr,33298,b1c95d8c465361e4cf7518491e6cbe1d
401,Fabstress,33275,43adee630812544a37f4b01badfe86e6
402,SuccSuccubus,33233,37859e0df094813d4dbb1517e7694f18
403,Unwurkable,33211,2454ed8fea46377ff24f2e785ea11262
404,DarkestAra,33207,cb9391c5f9c4f05e1d3fb02d26efb3ef
405,SinfulYoona,33205,a9b92d61fc0c41e7fff072388a9567f4
406,NinjasShadow,33160,407204200a4b1d79faba04e5bb5b247b
407,Kizalillith,33125,ddd8b61472337eef0642d10d584bdfbc
408,Yuiim,33112,983081140a9c4c778553d0a9c46d1b3c
409,KissMyHeels,33062,fd86be26d03069d307b5e60fca191e56
410,Rubby69,32991,5556aa2ab9b7a83605584b636be44cf5
411,VilaDarkhart,32990,185c7d012f74074f1ac3e45e7838f450
412,Wassendel,32955,6a203b58ec0a05b1a4c26736e10bcbd5
413,SinnerOfLife,32955,0551dfb62a101c0ca27d29f61b1c8915
414,vJolt,32932,4e163d68ba1b06ae5ab7a5a6355dfe68
415,Potaxia,32905,ebf5b19f5317ea90946e763b0d91fc10
416,MiCaSaXx,32903,9397e15a532db5390c6494a63325510b
417,NinomaeIna9,32890,d6973785aa8f19d7528d9b2ce30cbba0
418,ythosonriha,32883,f3bbb89dbd8682d19a257ff40811d577
419,Sirbi,32854,e7bc5ae5b10afee12d7da1314f444165
420,BlackOrchiid,32814,e9819dfd2763249a6cb003419d1fe361
421,Maldad,32799,dfcf982298feb7cbec505aa248a7488b
422,DemonDraz,32785,5ea56dfb2c195ac80971a424d7cafc58
423,AsliM,32776,2f7f0d87e411619609c72419ae153b54
424,LadyLillin,32763,f3d76d89049ccac259ae09a69aba145d
425,GrowthCapsul,32739,c4ab9f2c4cb16039a6dd97eeb435b56f
426,MistreP,32720,fb6bc5d4a1801a9793f5be260957ffb4
427,MistressNite,32701,4cb0700d2d2baea5de95cd9e13b1f672
428,RoryMercury2,32691,902ed0cb62655363cc9cb0753ab8dcd2
429,AKIIIRA7,32686,62490ad64a59332003d153bd9464a106
430,xXTosheXxI,32668,c311903b826d00f2e5a756c63d92e4b9
431,Pesquisa,32654,74b598216ba485fd33a9afc3e0e28c69
432,Xtremex12,32649,b54818933471c301e301d1b97ec86267
433,MistressTeku,32624,29067216b298637c961ea6c2d8782087
434,XXXVID,32622,5a04a66878f5bbdb2113bf7c89c66267
435,SgtShinoa,32612,6f47878aaff49726185f134939eaa8fa
436,safia200,32608,bf5ae8837ba36871c0e02671088ffa84
437,LyannaMormt,32577,1536476d59e711a98eafed707240b5d8
438,khalesy18,32562,f3a76c2b0f7706fe30b38fbe3a9bb09f
439,YEISI23,32551,c58b1fca818a9ad19803b50a1afb95d1
440,Neosuco,32541,7ac00f9a361bbe69714f7d2f09a14b4d
441,Morganam,32540,47dbac20fd59a66d55979d1cc8a3905b
442,PastelDFresa,32539,2e2377cda3faf556705e9d73f381f331
443,LuisanaFlore,32537,91fd4ee50bb386a4cd55c3741c613b0b
444,aume69,32511,741430e716998c15af3336643c1b1ec8
445,DanK1,32492,eac17920a7a76ab3055d9df39ae763d7
446,LiliSuccubus,32485,f12a1ac82efcc9a4aad0bce0d4832dab
447,Embiggen,32477,0306fbccac060dce6e15a401151af212
448,Anaelia,32470,3a466c741392fa4804e49b8a2c3ed856
449,ISeraphielI,32460,58ceba5df3103a6a02700cab6d80366d
450,OverlordPram,32420,0b592aea281b2eddf1325951f5a645c8
451,Nanashiona,32398,66d417c4a6a94c8ee5a665f74d4f6829
452,Ilarjo,32393,3e719fd5dfa4edd7abfaf48b28cd81e8
453,NitaraOe,32314,8be8e3bd685194d33c0c56c5ae1ad4f8
454,mintressmin,32293,6b407dc498c662be4899fa5a2cec9c18
455,Develynn,32286,c116533b77211674736b8d5cd6dd2ed2
456,AdaWongDosko,32229,862a24864f1214dbca628c1e097e9ca1
457,luzclarita,32212,858fdd184f4f5240f2b683c7003a5a94
458,Miasmy,32205,aa7d888885ec7b34d401e1e697a0d5d9
459,DeDeezNuts,32203,07ce5e89fe937cd255480ab4c4604333
460,Sardinitas,32197,a92eb57680c1a4cb9e57fe03fed57b14
461,DEMONTRY,32194,3af9dde198260c1b1b7eca767a8ecf9b
462,JadeBeauties,32176,03e54ccb59c9125c0bda6cdf1d9d05dd
463,ThiccPancake,32141,65be54e5d900785e735e2b5e34dd745a
464,Mistyart,32128,c8b521688b042b0d6c8a451c01f20fff
465,Supermanco,32116,f623f452e2afa2927c9f0f3768baf271
466,Fremae,32107,286ae4e757c5b8e623159965dda13367
467,Abrih,32021,df4fb1349537acd780c5483dda5ca95a
468,Blowming,32012,82e25499fda9864199ab389102688c22
469,onebadtouch,31998,6c1f156e72b37cf5dfaa666087f0d43b
470,AngelMistres,31994,502767bf822ada8da9b8d1e22a47f7f2
471,fuiwda,31976,bf9d5e5fe04d4c2b7e49ba59498f42c3
472,ToyamaRin,31973,367b7f80ea5cceebd7c861e622555b23
473,Firede,31932,ceb6567146ec10941dcd07747fa83299
474,WeddingBitch,31830,ca224b0a251d06e090109a7847d3a424
475,GGTotem,31830,fe6839f58e0a77865e175c413e5bcf19
476,EvilTeressa,31825,29cc5ffa3b055ddb0db675bb41810c7a
477,fpriest001,31816,de2b4f7419ff7a114289cc78aa853f94
478,ScytherAxe,31815,58d65e401732e387cffaa3309e170d8b
479,Akthena,31814,b4e184d7de1967a41f63b157d4ec34e0
480,Lazuu,31811,c442ea214897df0678d282ebedf78628
481,Kastoria,31805,4ca59c0fb39b81ae730e2d5c0f0c82d0
482,BlueCarre,31777,eeace1c1983bc9c6c37eccfb301cac82
483,Veronica20,31771,641b0b7b1a399769aa2a82592738fa8f
484,SionMistress,31760,84c254233cbdf2d1c185dab8a189c80d
485,park4,31760,dfe938571198593ccd46c991c8832dc0
486,CrimsonRoss,31746,85fc9ed97f01e1243804afca9f249bdb
487,LilithLolita,31745,f4d0fee0de08fd419c7f297489f9f97e
488,SadisticUwU,31718,28dd492f11741b20e406f68cd8f90730
489,lizth,31713,96aae02402ade96c223cf5d5aeca4f4d
490,Vraxias,31712,2c75c384a0fe77c3add05e471aaf47c0
491,SinsayerK,31700,f858af0bbfb34ca1ac282871b285a1ec
492,HallMistress,31689,cd08ebc33c4658359d2c3537bc5d4369
493,GrayMistress,31676,c774cc9975d77abcfd1a4d05ef19a381
494,echo2echo,31675,5d77e32a2b423707a0deee28636936f7
495,PilinJin,31648,86fc20ca0cc592ba900fc6a1e544630d
496,IamSlow,31584,810819be1e7fe7a9c5a9847120439f72
497,Clwndeth,31565,78d629992047f58751078e562a067fe9
498,AnatSuneMu,31558,65095cd146eadc96bb31a013a6167d86
499,Cubinus,31451,4777df479dfc5e819f506d277e465df6
500,BoaInvidia,31430,304bf809deb38f82c8f817eda7d547af
501,Ll1lith,31430,f018024c50592721364f57fda51cda69
502,Velvetz,31413,3ec08cfcf1033315f83d64aeea688ee0
503,OosakiTenka,31399,c3eaf5070aee7e1e9ae6d72be2d10c0d
504,CockI3itch,31394,f57feccd8e2e3e918830c13e92ba70db
505,Aliceru,31311,16b84d761f4f00ff36b2bd2c3325df92
506,Jolayne,31281,d9a45a13a44c5d7d3e92232644f81924
507,HasumiAf,31265,9eedb8943ccd2e2e2ba0eb71f9c98003
508,39music0v0,31259,154a246939160be73ae53e6203a88d08
509,Sincredulim,31228,78390fdf0e1f5248f0cfdb50e98f3c68
510,sasha2318,31227,63e65fb7cafc6b5e9f588023dd2e3c90
511,HopeGalant,31206,eb40c2d4392984c87245a95b3ff14d6a
512,MochaJello,31184,a38adb8558fa2185aca79358e9446aba
513,MetalHavok,31153,9124900c5f2d55f1b0358b4c2be5fcab
514,Yuanya,31145,3581f9ae255f6137344c80eb274a8b8d
515,Mischance,31112,dbf09b1969a59b451047b3cb7698bb2b
516,ariafor,31027,e74ade27d1f413e8371faddff16836e9
517,Rumilia,31015,729e898f47f98971d4bdcb253cbd2f2b
518,EvilToxy,31014,8636d175774ea5e064aa5a74eed73afc
519,daylenDJ,31001,cd8fb29b7b7c3742c372b0d0db06233c
520,MissMaryMG,30999,e6010d2e6d6f72a8d2d600ade0b91fb5
521,Casadohra,30957,dea6434cd7ce8fdb982b809446727b0f
522,FrostDe,30957,02b5f6bbf66f3f98cb7bf1e65e51644d
523,tommy26,30945,bf1a539b02fa19eeffe0be891e294abf
524,MsPug,30943,20719fbac5e5707cddccc98e502267b6
525,Dainahs,30930,fd85fa3b99da17f0fdf81d5fbee84598
526,EnvyandLust,30901,515355a8429eeba63ccc7f7e9f7cb822
527,lisandrisD,30893,dec91f5f4a72d6feacd8598da76ccfa5
528,DaedricSins,30891,7cd005365552324d8f304adaa8739102
529,RedLiliales,30886,f4b85e6be4c14363c47afdaf4d8508fd
530,HotTopicGal,30884,9bc4fc56b76a2e3dad7e260070db59c2
531,MissNaoki,30878,c803cb7f34fd0aa6df6a795a2363fa85
532,Takataca,30849,906fd66f2e6bedeafcdabb543d2160b6
533,LadyBelland,30837,a32bf104017979938fc96419bae76b11
534,TATAKAE,30825,be8f06d74e2c67c97c51a99f6497bb02
535,Arisa7777,30803,70bf088c23f972b06d6ece83c69b9412
536,DivaMistress,30800,d4c149b5be9cd25dbe54d6f965f55ec6
537,JLSGLIU,30785,5cc00b000a7f905fd8f170b699716438
538,LadySama,30778,566b2051c0882855de805c43f93ce94e
539,Tayka,30776,4644aee91437cfdc1f904a74c5de3741
540,Jackzbel,30699,f759a684f567ed0275ebdea8484802e8
541,Jakutenshi,30688,55402aea1a84dcf9a7bcc5dba95a7f31
542,ShitBrat,30666,31f9c8c3f6862aaf95fdb0140a563627
543,evannna,30604,510a78f55e639f34b3d4402dc2bfa813
544,Artemisa04,30599,3087c800d7ee30fef5099e0144331dc8
545,Famire,30589,18b72697350c157aafdda4778c845263
546,MuchSinWow,30571,afd1bbc3530c763cee627eb01303c01d
547,SeductiveLly,30568,f08f6b00ef4e11e8fe251e9f28bd7f0d
548,xCarmillax,30561,3fdf79952f3cc93edcca1496c66401c0
549,Fourpriest,30552,3b6cf24a0a1c59427d702391fda3cdb8
550,Ori_The_OZ,30549,7ec8fe71bae90163a660b63433f3291d
551,Rafftalia,30548,50607bbfdbac3baaf6256bd4b3308c99
552,zurikata,30493,568e1f0b80f68e2ac941a5a001458474
553,Bestinc,30458,70967c260738f1216c4a11e773b4ead7
554,NenMistresz,30456,12a96e6002294c6c45bf7d20d141da08
555,CaiYing,30392,0f9e6a7a5a6d7a65ed2465503de4cb13
556,DatekoFabi,30384,3ae6a65dabd622aab70292f254b237f8
557,sijiazi,30359,d0b0fa38a4f56af74646f6f7838b8586
558,InToDark,30358,4c848a16b9fb5e144cb9bd5042e1002e
559,Lanxxx,30340,f07a1ab056c90ab6d1be946eb5470be6
560,Quieressexo,30339,cd1d48daaf234e5c0dcb0834ab344e3b
561,Kimbysss,30309,578d5c4f2455f3714b511d01533cfe37
562,bankofUSA,30296,ef06db55f22faa02a1a1b7c5f80bf07b
563,XinxinSY,30287,952ab3d585b2f459cb8e4c6e800d9728
564,estrella23,30285,084f5a47f230b090ae33253b69873b68
565,Milicentt,30282,dad2652fe2b10307e0aeb45aca28a6cf
566,gabyyyyyyy,30279,e718c55a0bfb019ec0722ff94a689d2c
567,DaTenDanZai,30275,988ddebbf429911f6a548ea14edfed75
568,XdestinyX01,30267,122e3b215378c277196bd09d0893e4a2
569,N0ADA,30245,dab80d320438ba5ac21386a534943a56
570,joannyerlis1,30212,23aba1a8c74c0d6fb2ad1a48adc96ae4
571,Uuys,30206,26f1ef57444272ce3b81ca542e0c85ba
572,TheGirlDemon,30203,43e0875c1657483f4128a889eef5dc07
573,AstreaM,30202,862f63448b7db283cd8dbce76e31d0b5
574,MoriCaliiii,30178,23a60a3e541655f1cbf47032866fcdd6
575,GodsMisery,30166,cdb84c3c9ae52314902c705ca9252606
576,Malisima,30160,b0330c1c4ddb127c52293a08cb7ebf3c
577,StaySinning,30154,b1d3be681589273c82fd66c4942c0ffb
578,Sd28,30130,5bf8348a0af845e8d505d15c718c7236
579,AppleInMouth,30128,7ac0674be21c959649a18a7f56391e94
580,XxDemoniaxX,30099,370376c2dfe2139c2a9d67fa0d9007fc
581,kempachi98,30053,87ff6fc0fcab5d2f19ac559c1916d18f
582,ScarletVP,30035,10d79aeabe696ca2b625c6b8c21afad5
583,MEGALLOVANIA,30031,02e6b96bf96f8015a2afb5401427e1c3
584,LofnIne,30006,09fc61ccc20d95d455b7202bfcf84051
585,BlooodyGirll,30000,63106edf45720106c26071a84fa78c69
586,SheeHollow,29998,94cd420bec6a70d713a37ae46af71b85
587,GrimSlayKIfa,29986,0f454a2081ee48a67825131f0c72051d
588,Kyurene,29984,a9db87d41861e07fc5e79298228a0656
589,Hennat,29955,b80a873f50585d3783cec50b55578f17
590,arodite,29924,48e5f4c41f7cb014465bf6440aa92974
591,TheDeathVII,29905,610f63bb51e8296b6926e9436bcf86a8
592,Magdallena,29904,01356f91e162f3560bb9bbfa651ef45e
593,BelySan,29896,6109e065ee1c2f16804254ada6d1855e
594,SekaiSenpai,29786,b3e019538951d993b92b820816d42b1c
595,ScarlletSun,29775,9028b789069de815eedae136fab360ea
596,Desim,29743,671db52830d8bc154ab708189ed8a0bb
597,MissiEstrese,29724,31cb35e95216ff412b6f86373b379321
598,Athina,29712,3c0821bb3e8dc1ac94d44983666edcf7
599,xJewerly,29711,8fd99424c765318024f782221906fcee
600,Satyrse,29677,036cd084b1dfd0ab8941e464a5685752
601,MisakaSigure,29666,6a1dd0a31da6fcc3e601545241c24293
602,Fecia,29645,a220e09de209e09d6f2b15d7106726b8
603,Zhido,29640,5ed584a34d4c914bf4f563cd882d25a0
604,Serasaka,29587,1814cc50d20373758eb69d8638f747e6
605,meltroso,29550,465116623828f52812efe1d81c17194e
606,LunarMonligh,29545,3d3c4b7a932b3e4fdb951fdfaa4c5403
607,CrimsonZepar,29452,690fa61fe5da6dcd3f5d825aa1c53892
608,Umedungo,29425,ff0e6e499fed99d3e341c72dec277df5
609,Maguev,29361,0e49d4b26e6a3d358eb4790dc1469341
610,MissTess,29356,f8b51f0d84489fcea240eb770b2a2485
611,SINNER7,29352,e5010566902f9307b3597c61de5741a3
612,bamboozz038,29349,96443bd5b7625a875266137e9f9b5286
613,CorruptTeddy,29338,1d971ffc5c4f49088dd6d74f07065c33
614,UnelipSin,29338,1a9666b37a1c251a56efe9d9b2679013
615,culikitaka,29330,7f870612e799e9a7c74d907d2f98c9b2
616,golosa2,29311,11b6f1cc10cc4668f47db2c9fdf87306
617,LaMalandra,29292,ae6e30dd516ce88a4f615c2c9923b2e7
618,girldarkness,29219,bee1bbf0701b9b157d06e14722bdbfa5
619,MsMalefica,29178,3698957c8661a4c03e4f86b6701ac51d
620,TheMorte,29172,6874371083a2fd4c57c4f0a6d9465b7d
621,Mysteriosa,29171,a076a5124963faba1cc3eb0b0208e0f8
622,EvilHigh04,29165,84d948ee3576cb3786e30e32facd0671
623,ScuboSla,29143,738936d303dbea857fea3e7160398c2e
624,Saffiro,29133,b8e67ccfb92518683c6c919e3153b04f
625,NefariaFalx,29124,ff65b32a3adf85d8cda01e5c0febdcb1
626,BledyRedeem,29116,ad8b680f6678c2a4ca60cd9b56f32305
627,Shouseki,29110,cfa198275dca73a46a6d48b394b9fdf6
628,TemptAndSlay,29108,32eb3e25463f21626594711bea7de0cb
629,LuciaCapri,29023,2374fd69fdb56741cacb4612e082344f
630,Setsury,29015,1b740088c71451b2d846361f231099a3
631,TykeCN,29015,c712a1508863fb2f031da6e77709b22a
632,Khataya,29014,2002c96cc4725f0fe8bff34e6c2d636a
633,Pristmis,28990,c0046a00c28f8f863876f6d594a4f95e
634,HamRedeemer,28978,e206cce6301e9700c2bfd42ab73b4273
635,ShaltearIV,28975,534ac08fae4848cdb45d002b4c2fbfd1
636,iBorsis20,28957,52648ee865d748d12d998941c14ee506
637,Sakiru,28957,d4800299a2a09622c360eb8c3e2393fd
638,Zanaori,28944,1f1f39ffa755b3b2dd1f5a7b4302ad59
639,MistressCris,28919,349a2c3c79354973d9ebb5413a6befe9
640,Manolota,28916,1fcf7382f87a0affd4d96a79d8cce111
641,GoldenCloud9,28914,b66f274f8c00eeeb8b8fb360fd9f2548
642,misaki78,28914,ac28fbd94f9d6428fa3d540f5c83168b
643,3WillBeFree,28905,a7617945e8498b8bf12def9a607fca30
644,Melissandre,28901,80f1d931f32f3844de67e088259f3cc9
645,GuiLian1,28878,c22a96d91cfbf54bea396c7b737318d4
646,famelica,28866,f5d447afe1fea1c919f92620ec367fee
647,1KarinUzumak,28853,9cca694a914ba5453bb295d5f787beab
648,MagicMistK,28852,f9aeba8ccc5da646237b9d7ca324de40
649,queensky,28808,3c9b714a63349c590de7d9ae87b4c7a9
650,Charalin,28783,2075f44ba54556521244dbc1892ea9a0
651,JustAda,28783,52908e9458de6a581fbf368fa5bd8035
652,Graveweaver,28764,0c6591a2055dff65e5d42a4204aae62f
653,Claudin,28751,60f606a0d91a9174050896c0a5abe6f8
654,Tharmun,28714,c430a3c749857bb6057a405868682407
655,NotAWife,28694,58c78cb3614b5114d6716331fb943182
656,Shiosen,28678,6a780478a5e9238d7d84b1ce27e28f10
657,Lycanuss,28605,e6e3b7daaef82aa02e34f33dd70b83fa
658,MidnightRoze,28598,351125002c259e0c02efb5287b34f9df
659,Peluchita3,28589,b7ed3219122f5c4e8afa7cc714870c31
660,Enonoka,28557,4418918da9d9b67b9161f7a21b6eb166
661,KiichiMyoujo,28555,7470c4aa3f326af72991f324146658b7
662,FullRedeemer,28552,c70feede9af3a38094968ada6252ad6e
663,CruelThesis,28518,cea52f647b3970bacc6d0f2c63d76605
664,KingWANG1,28483,5b4846e586b5f49b9e0015fd8d377e4f
665,FlosPeccatum,28474,5b0e8a38a4ae667d8e20f121acc8c51f
666,oikawafabi,28474,6852ecda32175a155089424bbcc6483e
667,Darkesha,28471,bb9ec70a0b899a7ffcce212894c0de39
668,Lovely21,28448,4148b47df354def84249686851070298
669,Miiiiiq,28419,06efe4dd1446ea4bcafa3b2ffac6f3fe
670,SinfulxBewbz,28388,bcbe2c2a0ea6b27e05c203b02aedbcad
671,Pariente,28385,c20c55e9079fff6a77603bed8e3efa0a
672,GirOri,28381,b53d4d2525d91aad5b4cc22ec0499053
673,WhiteDemonX,28374,9502c95e94e2a30bef85eb66e2b6a75b
674,dadada1487,28352,9e8842416e7549355a31c6681c1d9837
675,HACHIOJI,28258,415d78c0e3932d65fcf6e9da62cad4a9
676,EclipseWaltz,28235,23b0bc61f6ebc9243c864dfe3a5b5912
677,SlowSuicide,28227,ef0e1873ac7d0f110cda92f4a8d0c28b
678,RavagerGal,28223,15de6df74b05b462e89c17276916ae00
679,Fredddy01,28216,c72615c67a1d5df4abcf1e78b4e38a0f
680,HatsumeMiku,28208,fbb9d54149da449e612c44344f8f6ad9
681,ShizunoRen,28197,3809c5a8129def6cae5c535262947e7e
682,SevenSinPony,28173,3e617ed8ac8ed6a903a19ac516b71254
683,top4,28171,08db09fe9416d0bd1004d0d5e873656e
684,Yamigumo,28165,3b801caa1c2c9b57ccf7d1303be6ba36
685,tainzxiadiyj,28135,daf2aac8762a07892a3d3a116cc67148
686,_Heretic,28079,e29b384fff76108a9e7db1c0f5802466
687,Sabishinbo,28069,2f8215d3a105c02e9305aeb810436c69
688,Couchin,28066,02afbcc15de1d325ee9b4db5925291aa
689,Shaanoa,28056,875c41dbaa70c71869809938aa99161e
690,Luzifera,28046,c2e0715e2e162c6bb33a9d172c0e1c8b
691,FDemonLight,28024,e70a66f9abe2905700d550994294a7dd
692,Gudrune,28012,3356f4f3ef9747d3fa7cfe0baec05add
693,CincoGirl,28006,e8ff4cd45bbe8a0e3cd26e6e603a5153
694,Chamegosa,27977,b9e5c776714374e22e5ecc5b59580d83
695,Eavral,27968,f51c152c50ca3ba0d37c90f397e9ed68
696,LetalJessica,27959,1686afee140a56b44af111239e63a6ec
697,Shamanta1,27947,5cbb2c0fe637911a9b33accd6d6d7c0b
698,SexiPryest,27947,58c0a13e669a2316406ed701132dd428
699,Charlotthe,27895,14e475d56ae0d4a741d662b32ae75d7d
700,CelerDark,27853,54c486f96035fc994bcc79f9d91cd654
701,Feilty,27853,7fc4152c911ad6d786b63a0348079542
702,heleerr,27849,1e041200542d554d3775174b9bab7848
703,Sara04,27822,797854fcc152e50ec799281ba4074c24
704,Blackappleee,27800,ccd6a0f4cee73f29f6d198df9919df0f
705,Despena,27769,d0df64e7cab5b5654559f6207053ec05
706,LadyWicked,27766,f818384579fc4a94952dc21dcbaa734a
707,PRINSESITA,27759,91f08d7120f5a206a5dc031d03d97208
708,Marionete,27759,6c4ee62edf1bc16c01670b6a2f53b424
709,SeaGOD11,27743,028bbe0eafd6ab40b442203825ac8805
710,SoulHunteer,27738,ec8a22a53525a530e53b53270dabb172
711,lelysv,27733,f4e64bcda311ac69adef8a471d198dd8
712,Ginsage,27718,cc2bf1e070979e36554fd68d61d2fab3
713,MakaRonin,27705,93b006afb9cc5236e7046ae0848f9cc9
714,RaimbowClash,27691,7948cc557131b5ecc7cc7c123507c4a4
715,FallenShia,27674,664c7efe06e821190018f1db1cfbeb72
716,KuRuuM,27597,6d5e8fd9184de2241a93b494438a2ecc
717,Millett,27592,9106a9acc530020c0ab3766fb2f98b33
718,Quinnrobs,27580,47c1eaea0b8f2cb55224f1d732121e63
719,SxRedeemer,27570,4cf108bc05e1fb8cb2f2ec5215864089
720,xXPriGirlXx,27545,a9e36d72096fecb2777b0a8c12483463
721,Cesmak,27543,681b033d853de5b7f97ea1904b83d858
722,Anguineichon,27530,da7085834b7337cd93df1d84ba20e96e
723,LadyPriere,27526,3ba9a3b1bb8248ec9664356aa0387bb0
724,Abrahels,27526,5cf37ff1b5a80090252421cc84b87704
725,Nayin,27513,ae025c433f5c34c7c940eff556f14276
726,DarkDream*,27497,cdce4537f87db56cf61181fe3421a322
727,Zilliast,27438,c2e834f43887177e400d0c218bce765e
728,Nightqueenn,27437,d3793d0364b2b7ca303b102245af26ed
729,7thReaper,27416,c05063b3e4a2781c3784dc79282fbd3c
730,KuraiKuro,27411,2342083df97950d35f2c62eefca82b09
731,Gemahlin,27395,a3d36d0f87086d5d5ba62a5b889739b6
732,ShinoaXYu,27368,d9b28a37bfc3f4200593411ac0277cb5
733,Marolls,27344,58770edf2408a381b5851c4331383ddc
734,Misst3,27324,f4e8e9adc1c5ae71b6e9e220cc07ec13
735,Immateralia,27306,f236b683c97d74dc67eeec32fb46e4db
736,hioasakura,27288,0ba2ae5b0bb6933483c27c1768645621
737,HKSpicySquid,27282,e7515633df59d7e995ddc1a4f042cd25
738,Exielle,27263,603a291330658582a2492cf278dd46ce
739,Fulaya,27247,56be9cd462056820b90eccb5f18fbaef
740,Ssstark,27240,835463899e742ee3fb6b583043ccb514
741,Skulldust,27237,d6d6aded79166fe34437aa669f6d1f52
742,HeresyZe,27231,34b7c3aaef5a95636d0b8117c77ef9d0
743,datenshiaqua,27210,dc34f170fa77dffc7aabe0cb83f50a2e
744,Zaruni,27202,7e931eedfba1211131044bbdd746f41d
745,MistressGeor,27183,859ba7e53a56723b27a24d42dc2a3ff2
746,iTzwentixD,27166,05b80210fa9b78114b0fbc8750943b8a
747,TheRomans,27163,64405f0009d5c7a47f5ff7b0f48fc40d
748,Sarallei,27152,6a7b4245a14b0641451f71bb4dc7f0b4
749,DisasterKate,27129,bac6f6484deb53d9a15bbc873282a9ad
750,ReleaseJJ,27026,ea7e19aa578fcb86f31d04369d5e9ad3
751,1111122lwenw,26957,a0863acf497b929b47320bfb0b6a38b9
752,VIPER1,26896,d0ab2dfd718e34408fa910f27b1e05e9
753,TofuHarvest,26870,2969b30c0f5198613ebacb64f7219208
754,DarkDuchess,26826,2abcc729947caba4c43e50f79937e702
755,5tobun,26806,6c17512ad51f77682f56e5f4ce92b320
756,rosiitaa,26799,206872a420501597328e38ee2833e12d
757,diablita159,26798,d629702f63fc2f642d8b1a5c791d6d50
758,Mistress6,26795,334f1524ca884d1f91f3c9a6181890d6
759,Mairenys,26787,a72d442841aab1c8bb86cbb259574459
760,Isbelt,26768,46b91c3cde5c1aff120c684318277786
761,Kurobou,26725,20fb3ff4c0d46a75a7cb192000e9f60d
762,Shiness,26721,ab1dbfcf72df5fa216e71c59f1274700
763,LaSabrosa,26708,683055f6566c441af79255e7c97445c8
764,carlys,26697,40074c6fad8e86ba66a8be5cf3e8ad50
765,Margareta,26667,5a70ffb8c80bb7b146ffb667e401179a
766,Kakiin,26648,2029970c4f0c94908fb248b0379207b7
767,COFFE07,26646,33b5be2769da03ebce85e38d71d6ff5d
768,Kataaa,26603,ca3a4cecf6da8b828f4f993dffaf89f0
769,Rebeca22,26593,c74725772e128a23f156e352f80249b3
770,Kutufablue,26515,3d23c446aea8fd19f904380c76bbd3e9
771,Topo35,26492,5953d915ee7a03dc2cfdc93a57834199
772,fallenZero,26476,91bcc456eabb941c7dfab01e4d868bad
773,FinalTrinity,26468,f0521b3912c0087efc14583b2e06c6d2
774,LoveYouIsa,26446,086f7bb9c28e1896a05ac34e3970c4ec
775,playerxian4,26441,7ccb406d585bc82c80cc386abbe3aaa3
776,RedeemerLEX,26433,798fda8d0a5e6fcf4bae097f67231934
777,MissAkeno,26410,09abd856d9ea3efa8280223263c78906
778,infMistress,26409,151e9d2a5b3c5137784d50315d09de43
779,JuuzouRPR,26367,f418547a8c84d6371c464cf977a10043
780,MissAngela,26329,e0a9519a117b68bfd8ffccd98dc9fd72
781,DinahSmith,26327,b9278dbf157eab78e1f81f4a7fb0d298
782,ishiri,26318,18715fcdaf3f0f1c843c86efb40cf09b
783,DemonLilitu,26279,cad8b4b929a120f0a331e5e604ad2727
784,Rinmu,26252,ef65fb8d7179e94b5726441290d0b2cb
785,LupaBianca,26217,9d4affa4e61bd11ecf7b256990f4009e
786,mishha,26179,acf6f5af1ca9b6416c0f55a80c0da081
787,Archgoroshi,26146,75374117511d2ff0be7d4529ff14c191
788,mistressprem,26134,aab0b69e0459c165cadd891b21f2d8a7
789,miss6666,26119,f1c1ee020700313138cb78f449904f62
790,Seya2021,26107,cadbb74001bdc20f146672e2b8b93786
791,KissMeAgain,26100,78e5c37fb8c26d43a0036ec28909fe41
792,naatalia,26080,126cd8c4c5968714c8bc0a1200e2ad58
793,BHBoosted,26069,ff7a3da60343177e88c8b95c95fb9280
794,KFall,26023,efa0373d797742d857f5fb75cbaee94a
795,Xioaxia,26002,e8b45607d7e878af1a609f06d409ca63
796,Prieest,25973,c262644b3438a59658c2633cfac2989d
797,DeltaShadow,25966,0d934153c838c74a5d26a65746fc2530
798,Powerchan,25955,49b67cbd80b1387bf72c3dcc90052f24
799,ViceofEve,25930,83d1873b3b2c039c7699caf64d80659b
800,bootE,25887,875b6675c3f947687c4d56bf486ddb05
801,STealThief,25875,062affba46add0ee763bdaa1f0c0c163
802,cristal099,25858,cccf917dea84498a9c8c056d6e3a3233
803,NLNLAngel,25855,928ca8d8b6f471800406829fe6263ded
804,Dellah,25853,a85bceeefdb5149b0c1f81b3cba4cf83
805,LinkinBaby,25848,46788f6709080f4744b77e4f8cb7c6d2
806,Axsia,25824,2261b0b9fb82aca4f5c5e6f4a38d21a1
807,LadyNagant1,25762,5317aac90514c72054a547792ed28666
808,Xiuyli,25735,fe471b79afd7edfccb5c9d28e1417db6
809,DueLaSing,25733,968d52da6d98bdff59e324086efe9df1
810,Junomistress,25712,a6b8a1638653a50672b62b17ac9e897e
811,NaoMistressa,25693,9143835b7e2fe92807c740d30c460da7
812,-Athenas-,25659,5e809bd535bfc21b714e559c32cd2e73
813,SinSerpent,25653,15da551f4df8caa2468f720d24c168d3
814,Dhalytia,25644,1beaa9d52ba251e312f4d456704d6917
815,Drakira,25605,7bebab919e27706f43e511ef9efb2bb6
816,MakaiRirimu,25548,48cc0799971279402997e1b6442da46b
817,MeowMistress,25546,c049bb9a09d20cc094dfdf8282fb09b8
818,Maltys,25527,a80a15e04f1fd30e5409fc6e24323bd6
819,yentonces,25514,eaf5564de9c073ad7f88c705aebcadbb
820,perra02,25494,23d8b59483db3bbc40de11d11fa0603e
821,MmeMacie,25477,ce7e59354f7df44ade0044617e7c189f
822,weitwoi,25467,460c0a4a025c4043d0fde9429f219958
823,IDQueen,25449,653db5ac968636a47ef75149ffbd9d5a
824,Mistress000,25445,1bd35b53e19f5f3affd34a76cca013c2
825,Hinata12,25437,f65fad8d7d3c88d5dad934cb3743fd71
826,maniki,25430,cd90be0b5c8539882823f0c7ea1f5efa
827,pipoquinha,25386,84218fe01649ee89d934516e2f6d5055
828,Azzazelisth,25375,95de1b414175d08b73a7dd384731def4
829,enfermano,25353,39526f2654e93ac00e028c58ce6fc2dd
830,SaintLulu,25346,726882ea69487c2914323ab2733d7ab4
831,SofiUmbrae,25333,dfd4c1de559b5b98922fb5d1c94bdee1
832,Thla,25322,6ecc09f0ea33078d1d6d7c3b7de833e0
833,1ManZ411,25310,862c46b7acbe3791553bfb955706f493
834,Basica182,25244,1c9655cf03a714f1d0f7f33c34e40d0d
835,Bioladora,25238,c052b1a979f926d48ac1c3c3ee37decb
836,DmonNextDoor,25232,2812d560061121830bf1469d949d088b
837,coprFPriM,25221,39a085259ed13f0413f3f5a0a60f726c
838,RomanticSin,25200,1acaf31d5d3eeb0b88b85ac44797c333
839,Meitriss,25174,0122f820c7db2f58ebaec901998dabf2
840,KillerroeMK3,25143,38ba179e687d382d062c27f6793fc4a9
841,Zetuyo,25139,366a291bca3419b17b6c23f3a4399d53
842,BitchMerlina,25126,bb5e46b200c9c5940d616ca64e079fb2
843,ScoachDemon,24981,0316a7bcdef493a2308b906ec7b49959
844,iamnoobman,24954,01cedb4a6f64173100ee7a3f3163977b
845,Kurozu241,24943,1c2d60f15c232f934951baebcf3f052e
846,LeiaSaionji,24878,f473b313e58a5323b27aa31ba4ebfbe8
847,oladiavlo,24855,5f310003ee0b63b985e6068cbffac448
848,Merlin1115,24824,5744a0257fd3e9b9f482c909eef02c9a
849,Maniack,24800,d470930ce728431a6556dbbc59d42032
850,Mistisu,24726,e697584ddd45eab9cae7b0640789a80e
851,Pothos,24711,799602a0b75e22e349ea7c147e71d641
852,NoRatZone,24709,f0cb9c1ac01b41ada5a284432d968d37
853,LilithAngel,24685,3de3ba46e3c68bbd4a0e792d2d66b476
854,lanecia1,24683,f774de840531ed3798462006c8f52d6b
855,lJupiterl,24671,45bdac05666137dc5542423a8d73661a
856,Scycta,24667,32e5bb8c93ef0b1a6a3a45e927aee5a1
857,dijeannu,24629,20a721603e2b1b6b4048469224802729
858,iMistressEve,24628,5a604b68310ab6a31b9c5ac193cbaf2c
859,Blessen,24619,79ea029e8c4aa5303a7062598b34455f
860,Viori,24611,58061a84572687e8989ce640bc2323e8
861,BloodMoonKay,24549,06ca1fa5f20f8b1fda51a309e811edb1
862,Kanelita,24547,9ce9b1f8a00821b7c2d87a29a3ce240e
863,valentina14,24526,93bbfb09748df7a8fe2346b4026f18fb
864,Carenina,24501,7884e105fce5001d127cf49a980913dc
865,lirisu,24496,e0328a19e2bf3d19dc09e7b3edb376e7
866,Hygirl,24466,577c314b8aee7a98de6b8d4f82757f36
867,Kyaell,24457,05f4c5a4651837b011603520bca61d8a
868,SeeleEgo,24431,818d3ff2e9eb299fe528f23ec777e51b
869,Suasion,24421,e511041d39a6c1cee679f4321e2e44f8
870,xXxOrianaxXx,24418,c535ccba6c656005f388560aa186991e
871,imperialmiss,24399,a54f1ec8cff0c1a96c5b28913ca79981
872,YGMist,24373,9c117fb3052eb799e38c29fd8c3c9a8a
873,startagain,24368,8a1e1be87cbb9d084d4d23ba83c63da8
874,FakeMistress,24312,1be8f5af07400ce414dfffd2ce720614
875,Quiatimot,24311,ad86c08549ab5ba25ff264346fd4185b
876,lHela,24262,d510c07f94546b314c8fcb7bb2ebe11a
877,Yerichana,24225,42c190654d3aa0fe0dc533feba2e81b0
878,VissieKitten,24215,cc040375e30aed0a5469025dae3654b9
879,Shana666,24209,ef72bced4d9531ac8e9a0b291a359f7b
880,CTeresa,24204,c327a362a779129aa90244f6babb1b87
881,Unicornia1,24188,6b1def2f7ca18aa719b93d4fb8c9a0d3
882,CrimsonDrive,24172,602279ee55ad09992b4aec54c117b48f
883,RinNibbinU,24168,d9754e8ddb1153d16ee0e7f17c07f0b6
884,MistressDesi,24148,05efeeded3e515768eba5b2656ae3ae2
885,ManuelaY,24130,26957d0810ce4cd4ceedcefcf0c357d7
886,SabiRooma,24104,73a5f8b768593fe901d6bfb1559dec8b
887,Zashari,24098,0b61e78fb7b757c5bc50483d82b3b747
888,Fubukria,24077,3e82dba92f087562b117c18eef65ad59
889,Azeraphel,24074,45b7d5cc0ce2c29e42cb3b025833f2e7
890,CursedSins,24052,ae9b55bdaf5f65a992e81de4e6b34e97
891,Synoalice,24033,f4ba533d88d71c92af07a2fe03736982
892,TilithSolis,24021,0d340abecda032e55ef0362861a59a4f
893,TrTrCorn,24013,cbdf85ab299c58aae613c3180108a729
894,HardToNameFK,24010,47806b2e5146704cf52a71b0da8d25be
895,Raevy,24000,c05b7f9e9efcce61463ca5e22efea490
896,ILuciI,23994,382b8e058e9a202d9afc6d951652b23a
897,AncientSin,23985,99272a19a4982aac72496a6b155bb5d4
898,MistressPeko,23916,d3c4fb57e2e2d9e578720ba50e60ef2a
899,Octrice,23916,e24ef2cf9beeb986896c461eef1984eb
900,Mistressalex,23895,a2aa41623b5b17af5a82c731c171d7f1
901,IILucynaII,23888,25a591f9be3b1428959fba7692b15463
902,Kioslyn,23862,1f96a0de8fb18dc81814670e51e6be26
903,AmbreAnemone,23857,ff595b6a6c07d78cf4072a5ff2bb7ce9
904,QTPii3,23846,d21c51da824b29e1e7138a8209fab433
905,mistressale,23843,09884a4a13205148eca0f33629cdd553
906,dan1sh,23841,7df47f7aa3cc2574232f00c71df685ec
907,ScarletNabi,23809,1140bf6e8f7bfce63ea711ca1207c455
908,mayonesa591,23809,1f97fc19645e357f1ce9d510d1e56cc4
909,xSoulFist,23809,e836c881dda0ac2dbdbfd9adec31fc26
910,o8xsarax8o,23802,8542ce3f42ca5fc42790ff93524355fd
911,OnlyDuhPope,23799,b53c3e39b24ece08ffb283f88282488e
912,WhiteQueen27,23793,8f616ec455f5404950ae2f3898be72e5
913,ThotDemon,23772,2d4b374a9e33a306766addcfdad3b314
914,Posole,23767,193635692f3c9d80a85ac0778d0ee7d1
915,ABCDead,23748,291995f9c713cdee672625c8928d46a2
916,Vasilia,23742,315b3ba28f102b54165a8974c4b1c00e
917,LucaCrowder,23661,7018f78386119fb50a6eae8dce79e61c
918,Kaila18,23637,4589c893176cb757e0dcc6a4fc47df43
919,Arkhania3,23579,4409f72fb48d25da16496c628d01b5bd
920,MisXianXi,23532,59eeb9d31b530f538d856416505420ef
921,RedCherry18,23528,573c8d6fe02cb4892e72d6d694993364
922,Lasirenita69,23521,6dfac8e43d3f4c42ef4becdf892e37e8
923,DeathlyDoom,23519,6e8918f64007a702918d7b62a39f5db3
924,LUCIKID,23508,e16b912d43a889b904e5252503b2a3f7
925,TastyCustard,23485,c71b64d68968485d0ecd5ec52af50caf
926,MistressJess,23473,fbc24bd419e18316b8eb861ed5caa3cd
927,MrLean,23465,e8d00671e56c786dedcf6a78200be1ef
928,thepriest08,23454,a23feb436d62438708627cdbd330e3d3
929,GothCash,23365,3309eb2e980c55986514d0d4abee35c0
930,DarkenedMist,23299,c08c4c17e4879defbac020c979509915
931,Bible4Dex,23296,b8c6de852ef4e4308e25bfc430ff64ec
932,MAMU,23267,36d3d69cadf8030c6fcd8692f74c3402
933,kikiblood199,23265,d652dce214acd647d649554ec5fcc376
934,Rwbygod,23259,47c4be3c5af470d9966f06ad7511167d
935,DcaSh,23253,efbee1b81abbf1f6befc279b1c7ff788
936,LadyNun,23248,5eb12db5aa73ed0a3d0bbd28dbad4710
937,Remielle,23229,f7b7f70540ee5a9200fe31de090b549c
938,clarisaali,23225,1aa342bb0d50d7a32b5b3a986624e3a4
939,SuccubitcH,23205,0c268f093a9648ee88baaf68fde79459
940,WatonFleto,23193,c72848255f22f1fbd57732b1b81abebd
941,Applebooba,23182,d6af055e79d3b478302f2a56b70e79aa
942,Yulianyel,23178,834013a2c1494ec74186a331e0f0b5c7
943,ZestToujou,23177,fcd29e1727e2cd9c9d923fa55ed277e1
944,CherryLicker,23140,7c7ac93c6120e0821ad13ae6e56886c5
945,RizesShadow,23135,45235924877959fdfaeef1b3256b2326
946,LessSinz,23113,d9615bf584c8270d33a55d2c1fdafd15
947,MissredKum,23093,b6f01df42c228285e69c08c7996acced
948,Hubrix,23060,895378310dcef5649ffa0f04a5c84a99
949,Keideemer,23059,24acfdba72fc78c460734a4af6698593
950,LadyAtas,23036,d1a8ca5023e58d40b24e8ada4e7b94dd
951,pritnis,23017,53ae3d38e937b546ba593e42549cef88
952,NightApple,23011,37553e19b006171f32fab83f83f3ab26
953,Putita1,22999,fa34f8a9222fe17c5bcad66ceb3021e9
954,HI3aby,22991,42b7683d4362560e00df17fc213cdf35
955,Jhosgle,22974,b184ad2be248e02165345fb37954360d
956,TMistress0,22961,d35bd432cc1da997cc16d40a7a574e22
957,RemoveDNF,22952,5db066ed218d236a77217c3f1b7339c0
958,MAKAIiiii0v0,22936,26f0539986155eb2bee626055ef679ac
959,Darksannie,22923,aa4255b4f467efe59b48250216f0c7fc
960,XmisTriX,22923,2a4769632121b12e1ddd779982f2f199
961,Hunteress,22919,cf85d0d3d1342ca35bab798fc48fe46f
962,IsleParadise,22910,b434de78e36db20275653677b6903185
963,Purp1eX,22905,3b5e0dc5e55b3d36f686c6b82b503ba1
964,Lehita,22889,ddb44f30dfec7da216c1a559649f884a
965,EVENDF,22880,b63f3500b85ce794303e56fba25775dc
966,Vermeiill,22850,e4089d3be3001f09bf0a5a88124207d3
967,LPReaper,22841,bf28e40d9ed75f518527af407d66ea0f
968,Sinblaher,22840,5b24df5bd2792c304138edca792c875f
969,junbre,22827,2489342def5bb11936d3be70ed1a4fb9
970,Rosa16,22822,6731571c46a4fa5fe55e63a01e448735
971,AriannyG,22820,54359e514ab9864de3e6ed9da78d35a6
972,MommySinner,22741,7560466f10ed401f14192e072b9cce60
973,zAmandax,22727,f1f72728f33e125792c01ad29e4e083b
974,DemoniaCrux,22723,a2b1efbb25065cf6788a9a39480770e6
975,reneida,22711,eb6f070cf0525b4d77b5a9d9e836490a
976,7Girls,22688,a88705d96e1b43269d48d22be032960d
977,ShiaIluvatar,22684,32163056b8ae857b0ad995d4e6396743
978,Nuteya,22683,45b8aeb1822bbcc8620f51d394c23f1a
979,Tankotron,22676,31667455e48dfa824b6fa487b7498d18
980,Evelynss21,22619,6203aabb95f471228977305208a7ecca
981,Siresi,22593,9880bfdbb32bbb37213f4fcb871c2568
982,RuyanLiu,22587,718f187b1e1d3481bb251a46ad0652b9
983,lilythlove,22586,faa3cabde1bca159f6bbe95a1ac5313b
984,feetluver,22580,02056f9d66bf7edb76158cc9cbcd5a25
985,LunaOfShadow,22553,d4f78a580df0cad0296796f1dc393fd4
986,LustMadame,22553,7a8be1a3547e2b1ad45581d7af5857dd
987,Seshat,22521,fd9bccb099b1f28f86804e523c1878e0
988,ssoledadd,22493,5a9b75ce68e2564287342edeadc0dcf1
989,dogeRe,22483,99f5b506ff481c2c14c5ee1f4ee6c78b
990,Amendoimm,22442,bd505d8fc866445c1de626cac9cad37a
991,Daleyn,22404,7d558f26bfcfcb0a390a34e930fd2bfa
992,xIsharax,22398,fee68eba5b952e5ce6aab89e8e16e3ff
993,Scaifu,22395,b885c4a7fae0754e9d83cd017277f481
994,DrinMistress,22392,057118e6be7f6f5a9b32200c7c309c43
995,GBMisss,22382,45e372e47957165e33f060722ed27466
996,susej1512,22378,04e2aa6f39045d7d7dcac4d0429aecbf
997,Angeliical,22362,53fc11cd01463737a13dde13f9834f1f
998,LoneMistress,22327,1e8c3060b172dd1ec26efe3b8a58b9f0
999,EmeraldaLili,22313,ec7ee649b51138a7e19cfa0511008d7a
1000,Pneumeriya,22292,9fe79b1473765d636e27639b0b974c6f
1001,Xelvi,22288,9e3fbe07ab7cbfe133ca94d997908960
1002,Mundsex,22249,ebe86904470a8ce7822ca8ff9763fd75
1003,koakumachan,22229,835fb248cca6d154522d3229241277d4
1004,BetteDavis,22214,6e6023a6b4ca377fbb958e10a85df9f3
1005,BestHooker,22184,d16d8a44cd5b43fe8f7969406c450397
1006,MissSanter,22158,79ac8441bcf80404c58e3cb44fcbe93a
1007,69AllNight,22156,fc77d41a1356a53a2b987c8a160340e4
1008,GaBaY,22154,bc36fdc09946aacd005a2727a16f1573
1009,KUROKOG,22149,52b2665452220f63363203fd8accc14c
1010,Celestiel,22145,c3ed79a501d8e2d2dae7660180bbc4d9
1011,LolipopSixsi,22144,50f6b4c33a4f96bda3c2b244e8ffccab
1012,Cindyl,22131,49dbca408053cf5b88c6202c3d71a253
1013,LightGr,22122,c967b86e5765bc089d9df4bf66f8ddcd
1014,uouooob,22093,019801e0cd43849c9e7fc8e22c1c9da4
1015,SuccubusMiku,22056,974875f3f14cf7c7b6e06689454d0860
1016,Drizzlenaut,22053,4ef52d5f276bc75ee0220b6f47b11b5c
1017,YuraOfTheSin,22039,52f76bf5f7fdd18942b08388eb76928c
1018,Twelverly,22027,45a2e4043d27b54624da98a6fd6598d3
1019,Chumusuke,22027,2a047ccdf44b598c43deb3fd64c828e5
1020,Maffle,22026,fad613c9aefcf281a9275a1ac5b2e1b0
1021,CompanyD,22010,d7de257d9ffa9c83871fef2fc968bec9
1022,Bladenjin00,22003,191fd9664e169da8ab781f55f08045f1
1023,Sinensia,21983,69914b67d776c14dab3a1aa68b538929
1024,MistressVal,21966,2da7d75e908d581e5785234f003f0530
1025,Tuncha,21946,311a810b8c0c2574550df4a30526ba8d
1026,LadyKane,21934,c489978a85acdd8b6be567ea3de38342
1027,ROBAALMA21,21923,8a06f8b8d9d564764310ac3800b8470c
1028,Gotticia,21887,8c53fefefdac4dbe655c09544413f1f2
1029,Zaunejia,21784,46403c58aaaceeb29690f4df6a968dbd
1030,AkkiS,21784,e31f71c336db97a9837f28c0e1af17a7
1031,iblackluisai,21780,06f534f236cff11bfe78a1344ecfb7e3
1032,Celestians,21763,2ca96ffe0a45136a9a457fd240ec66df
1033,EVELYN1st,21737,6ca7d85b7689dea778ad7b55a8ceaa92
1034,TheOccultist,21717,db4b303208ba202a9451ddb703cca45d
1035,FDtwilight,21709,966279869be4acf9316c2b9feb63ca76
1036,IrisHellbane,21685,ffaa13e815c8a9076e8a526a7e2d7f5b
1037,Lillithum,21662,8326878ad243f81ad366b9bce13d88db
1038,FallenAmelia,21646,e26ff0dc25175d052686899d5ea2ecc5
1039,Sacerfirst,21616,557ac4000ee55a71bbcdeed30d80100b
1040,SinfulLilith,21592,f897611f0ec466d54cfa94e906b4c1dc
1041,DiabolRhea,21547,5dc362b65b58bbfe63da7f4751e69043
1042,ACochix,21516,1a136fd2c075020206410e1b29c3cb37
1043,Yurielf,21491,80a73ca4d9b24f521e99ece951d3a1be
1044,KingSHON,21483,8a61150a8a2dbf6cebfd922bf2729221
1045,Deltian,21450,986743904fb1e192eda90ef221aaf456
1046,Anacondaa,21429,bc7f3b233d703b4b8fed55bf122d7652
1047,AgroSins,21393,c1ac53a7d1730496c73539b503c93962
1048,Tissaia96,21391,f145c15a2d2d2e9e8f39ba7103bec512
1049,Sorkail,21385,e5e6a7cfd7f8b17f942ff71264f59dee
1050,hubrissy,21382,82dc1c13a7660006192566cc7fa7af47
1051,ProjectDevil,21318,eba16859776ac894c7d2fc3c2a60314f
1052,TaliTaCumi,21312,fa34018aeaf3b0ded03c8df5de4a315a
1053,Kyuusa,21308,5f24cbf7944d717dd3844d1d901653c3
1054,asceg,21306,2865df80ab34c4a7ec1ce1f77a28c641
1055,Shamanda,21296,f67c6e59b20983fb4a0ab2f3ee1f748c
1056,Deinira,21296,6072fae2114ab96fc85082f2d1e4aa66
1057,CharlotteAli,21286,1b5b27b4d738e8a17d9551da0a69de61
1058,tita200,21281,760f68119dc819d1ce5503453f0d81b1
1059,Elektra21,21277,3e9e066485c4fca5996658286e1201c3
1060,FaithsShadow,21274,3fc4e0a6c104b4c44ca7234750c5676a
1061,Mistrese,21272,c8faeab43544cb557a7724546145930a
1062,-Megumin-,21264,b26ee436198309929eabdcc32fae2a54
1063,villaperalta,21236,965b6a498373790b4e9280e0c275b12a
1064,MadameSin,21229,a381303587ec26ba0b19d5c3e5a68d4a
1065,Theparka,21197,a73b66e8ffc5a97f137807754d306931
1066,laputaama,21186,5fcf50660b17a7f5f8df87f3036dbdcc
1067,FPriest11,21158,3a93ea4b15cf52f3112aa1fa8763692b
1068,Cerasinus,21138,86d5bc15b846a5bf785ffc8658176093
1069,NeonMistress,21136,4628348830725fd72780b5eac1e1e9ac
1070,Tokio00,21131,5f78d4d8587022f24cd557d3cde7e38c
1071,RozalinZ,21127,b8b77940efb219d8a3db0fc6faad5a45
1072,Amyk,21120,9ce15cc7b9dd99c01edfe12c7228576c
1073,erwerwqeqwea,21109,23be298ead6fa2e1c4046ac230523bf4
1074,GodXaoXi,21082,f44529fe1d2604145cbc5c1d4c279de4
1075,NewbeeLDN,21081,b93ec840ec19231eb7f42a9dd1eaea7d
1076,JessiLyon,21080,34f2cc375f709d2e6bef4ed62e27fe67
1077,KuuqiORiz,21035,7a5f431fb209d0ee5bc226b8442c9de6
1078,Gyanna,21028,08e937c32ce3d6f146870dbe2be36e97
1079,Albedo15,21016,5c4c981e643c36c7a43e2b47bb797a72
1080,xKeylakg7,20960,1fdb9e62e1abe74242eda433876cdf65
1081,pitufinaxd,20940,17e8f14b7db337889834c29ed12d0508
1082,Mistin,20921,be35f60c77d3bdab4b6d23daba96445e
1083,oqihra,20919,f118c806d63297f0dd9aa3e8d09333a3
1084,MistressMora,20898,35bcb2714dc68923b0ad2f8b554b544b
1085,TheDarkRaven,20890,3b330337d11cbf0f85529d83397852bd
1086,Karuramono,20887,8878a0d4f51739c8c0e1d57aaa672200
1087,Apecover,20879,9d53544a6d19fb1875da3695d73f66fd
1088,Kaedrthilbh,20827,30eeef3c0380f53f67ed88ef2c7da697
1089,DemonicSense,20822,0a6eeccdb54464bede655ce17b179ebc
1090,ProfFilia,20802,9b7d6c2f93bfecc74cdbe1367899adbe
1091,Thider,20800,40dff11a55df9cb9898c7c9c64fcb988
1092,Saekaa,20796,ae75ac9baffa25e8e124fdaf911cf609
1093,ViolettaNoir,20781,8c55164a7d531432e954370ef172135a
1094,Measured,20765,dcf2365396578ad04c64be2392d40f64
1095,MRC03,20747,4bcb96286db27da5556c73112e7da3cd
1096,Luxuriana,20727,e4268d35533d3e3be382cea7c8dd675d
1097,RyukLancer,20724,bb15d94c835e0a1d945907ab30ec75f5
1098,Sindrel,20724,d52a93d2ac51e12f735da23fc0ea228c
1099,SilvanaXD,20686,9e19bd755bba9b33f92db94829c26ea1
1100,lLanh,20668,bff78be9d12b714f991104dec2fc3cc5
1101,Xylacer,20665,4fa9a7533c75cfd2905694abc0b286bb
1102,morloymami,20652,5166126c310c05eaf87ea2eab00c3cb6
1103,Thaysun,20639,b9376a674410f5c92e5325659bf0d50a
1104,DarkSeraphin,20621,831e2a3a086ebcd3f123655de69e7e28
1105,Sineviangel,20621,5665907b1c0dbb643e763598477e8be3
1106,Melushin,20612,72ba671711e41e2514d7da85881e8ee0
1107,obviousedgy,20561,604011185a9672ddc908711ce699efb1
1108,AudrianaMort,20553,7416edbe09c7e1311be4bb4f1828b926
1109,Dreanalynn,20533,e100abea31584586756ba218817eb60f
1110,MisChiton,20492,f4eac69021cda0c48741c51e7ffc04f4
1111,Niselle,20479,64b15b16c972c09be5824bb88baeaa77
1112,Reapendrum,20476,77ab2bf55a9cb33e8f268e056f83bb2c
1113,Melissa50,20473,7e63452c1e100281ce0ed19f68fafa91
1114,LucyDeLos,20470,acd81dbe45f68b6ecfced19b68654612
1115,Ahrinea,20460,bb756a4df42abd187daabbf666e91fbe
1116,Wyndolen,20450,a9659dbd2df37b9a09ae3f3ec5c540e6
1117,DomSelene,20380,724c2b5f6cc60d21be49679f0215dd44
1118,Mysterli,20365,3d20c7e3c7bd901ca24ba6fcc4aca495
1119,RubySummer,20359,ae4d89ada958d0e1a774b5f0f3a9d87f
1120,Lerra,20344,0c612cc42d8fd3da95bdf5968609184b
1121,DarkChik,20332,7ec8642ad9b98f998a4804d2201796e8
1122,DakLilith,20330,44015007e1835a0ef25cedf249ca9772
1123,NeoMursi,20304,ff2c6cda4e7ffaa14bdc514c47b77c00
1124,Linkin55,20293,59cdf976f64db61dfec980f0f221f68a
1125,Lady-,20262,f7830c1bb69f4455beb7cf16672e6d38
1126,MistyO0O,20209,53d061b539b721e4da943f02b5d4a98b
1127,GinMistress,20167,8c57504735069cc271512dfb67b8a0ea
1128,tiawu,20156,1e676bb470b027271477e04af2bbd226
1129,Xahotep,20102,8402215424981a45730953678499622e
1130,Misunis,20092,9fcba0b5823b313c48a936e594ed5371
1131,Lurenuz,20072,9da92e6c9340cdf1fd1263e8d5dfb912
1132,AliasZ,20039,43cfb46adc39098b9fc66b66a98e89e9
1133,ZetsunaGP,20008,cc852cc8cd20c7a8c1f7f3e187c10f49
1134,xlYessicalx,19988,c653f8a29a416c0820036d4e736f262a
1135,Tochisita,19971,3b5641d641d1f22a8acc6e2860bf7c90
1136,Sonotsumi,19931,ed090e9e069c93078a69f34f6a098775
1137,Warren9,19911,173ebdb1aa6dda1a411d2bc3e489886a
1138,Iyosefca,19908,214937e522a4319338010cedf73bf97d
1139,Ridima,19901,7ae324ffc75f5421cc2dd881b9f02a2e
1140,NekoVerre,19895,e2574d0cbdc837b501699eb08f907367
1141,Spumpis,19836,bc9b0fe5d781b73488f664fb62d56888
1142,Shanghi,19783,2c3a26c444c504d478d15933608b566b
1143,SinXin,19728,4ef1549ba35d37106772dc679ba294b6
1144,PeachBeer,19714,9d2b6694d74a41900d14248a8b19b957
1145,Pellow,19704,a8715eb552bb3ea6ba5fced846e8fc1e
1146,DvinaZorra,19690,ad4799e526800c5cb9c6e36f258124e4
1147,Dhiane,19627,bd1096d1fba939b024ddce9eddb398fd
1148,MoistMadam,19588,d9c9987437243eb579b5fdabf2951bf9
1149,Artemis2021,19567,ef71f4820d511ac19348443f7b8dbd2c
1150,ReinaDaria,19562,3dd5aa98685575e390865df1c1487e9f
1151,JackzbelSaim,19562,ed3e5960709bb5b9ee0187a25952bfc7
1152,Yilith,19546,69e78b84244ac8317f5f4f0e128e3eb3
1153,Nyruka,19465,ad88f67e311ecbd523718dea0aee22e4
1154,Persefone05,19462,97a663b84931e3485e15f48a91ffa821
1155,Missleak,19460,cb788fb1f44b52e8318b1569cd01e38e
1156,gataoscura,19459,1de7f2f0bad684933dab619059177638
1157,NovleIt,19456,1f9554f780e1de45567e3c0e3161c2c1
1158,ImNotBloodEv,19453,b2491ac1f8b2f888312ed4feb32b9bb6
1159,Jaczcool4,19398,6cc4a557faa2343b22d008b471414f66
1160,Valeskha,19392,0894cd0c1661e6b85c9c4b18e11ce321
1161,Nekbet,19366,6c2e8d248045672e7cf55fab969594b9
1162,Ninoniu,19341,c849914ece438a7a8da9aa58a8a66cfc
1163,SAGANNA,19338,685c55ab8fd37b2bc3f77e79ad70a762
1164,KKoss,19323,f9a1786bf2fba96482e4b05418a5d025
1165,UmiPriest,19322,78df81851f3607c00a56bb1f9378433d
1166,Polarcita115,19314,c1a9ae1bbfefcad062a2c2fd79c7c66b
1167,SyMistress,19309,171738ed8fdd90f9812206a6edfd7d6e
1168,Shivathe,19290,7193d6d3583f5169669bbe065c6813f6
1169,Teamu,19220,ceb67e18fe916f37b186df838248b368
1170,umbrela10,19207,b86fc28d6d0e355ea76e13e4e1da69c2
1171,LUSTYCAKE,19177,3b478d97f88b38563e1b5f738d4b35e2
1172,IkillCops,19164,f700ab105b401b08c0b0aa611a18c3a2
1173,Lolhya,19143,4de9ed9a1fbfa04ca0511e5ffe302237
1174,M1str3zz,19101,473cc92d7495bfa1ffcbfdde27bf6474
1175,CockMagnet,19055,cd764ee75ad459085ec22c058ddaecf5
1176,AngelReaper,19032,985ef6bfeb6658d22db0837e1ff4c1c5
1177,Mulberritea,19013,505862af7ea52b421cb0389617803bbb
1178,ivanovich33,18990,ff1578d2e39b0f2fd12fecc9bf6f8657
1179,SHINIGAMIRAY,18946,f28547f099db325aa79e49ea0335371d
1180,LaMalparida,18915,d41a89d558cfb142d532486af60739eb
1181,Sadique,18871,2c032526834b698023cac2991dcd2e4d
1182,Hiobu,18809,9b7a70679c90bee5a992e4a3076b7b5f
1183,Philippine,18803,25c9492241ba4684b44516a626dd5469
1184,YaYeButCubed,18797,b9a267df7993bf0a63436ced2cffa901
1185,FatalDeatH4,18794,11d775496a507095a1bd920a37a373a0
1186,SylviaRose,18782,c240216e3ff8a88a269b90450db96dbf
1187,CoralieMorse,18765,780022eaa98d51141eb2cc823f95f06a
1188,Deadpilot07,18748,1059c98f95ff4113c1fcb872fc833970
1189,Camila666,18732,a665763d581e147dc301acf2b781a583
1190,lLunara,18715,0a1bab3f0563ad37deccaee750903ed9
1191,MistressIzzy,18714,20cef9b7882c16096c54ac9b6bfe7938
1192,RoriMakyuri,18708,1fc574649446d3272c49de9ed3c279b2
1193,MicroHitler,18704,aa00605764716158445ce3bf91bcdbc3
1194,CleoPatr,18703,029769cadd23878cd11c2aef9083828b
1195,Yvestruation,18696,d2e4fac3ad034a40d1aebcc070ec5ea8
1196,LilPain,18676,2cebca06a35f47c6be60768677b81277
1197,ChikaSexi,18670,511e323d44b3ed1cf6c764a6fe6901aa
1198,Vextia,18658,a3952e83906dd2a5ec224927399cc349
1199,UwuMistress,18641,1773ea39abebc51223f26cd9d5695175
1200,Nesris,18634,4763563de69298f82ab9743a566866b3
1201,AryOst1999,18618,d4a632f777d43e37f0b65bf07cc1ee73
1202,ShinoaHG,18616,74e1ab4260f23dcc06303677387a58a4
1203,Deyenira,18615,022257c42df09efe7ce998061a6f288a
1204,Vytharia,18609,046f4990137c9adf6da6dd4d9d07e63b
1205,Eviliana,18609,a025682ef5e3af830ba27ea7304e5a42
1206,maKaSoulea,18607,9306e25d9fe186a6d66407cc1b00f208
1207,Loeitq,18579,f34ad5c6afcb4542741c62aa833b0601
1208,TenebraeDeae,18560,33b73b91d3436d4ea012d74b51adf3c6
1209,MistressSun,18552,85c97e460f6a394ae98b628b37b947a6
1210,Madeira25,18539,947774d025e627dfde6940eefbfc11d1
1211,t0ty,18539,43f71c8664a73afe954e3e96e160194f
1212,SlaaneshJOI,18501,d6333703a85bb527f589252690e4f9bd
1213,KageShogun,18500,911b451314623215aac3fcf975c269dd
1214,SinfulFlower,18489,32d81388a7f7e6bd663077ddeb2ee3ca
1215,VALERIADFO,18488,6cb4b3bd32fb183929a4eb2f7abf0ee2
1216,KattyPerry,18442,6c2eba586809ea20907e2ba341f8c32b
1217,Vanalee,18438,56895abee09ebdd1429ca99b128d411b
1218,scytheaisha,18416,3fce633b81fcb0bde5fcddeb98e50112
1219,FriedeMoon,18389,456fa1500f2f7a06082118f0d757df48
1220,Spender,18354,e7424136995f2c4c1377d5e9adad6c58
1221,Compulsory,18304,8ae5723f8d48327ef2585946fb030ecf
1222,Yorha0S,18279,aab1fddf9626e359df16bbdc7dbb7557
1223,Mariest,18261,357809345332c301e9bb89969409932d
1224,enamai,18255,79d46029b5eea4617d5a0e63ff55b56b
1225,BSisterResa,18249,b25abcdb58ecb0f090f9a54529b521be
1226,Junckar,18246,39097ff9d839d4b4dd063c80a9e9c68d
1227,Koruru,18234,a800618ed47cda40a812a87bb1e7db32
1228,DemonLovato,18233,24d56cb81ca96925c90ff1cc55acea9b
1229,CropReaper,18224,5cd9a07ea4751d996a35b9a7bcaf5c20
1230,LowSkill,18217,6cbbda70f67354493ca2b63095aa26a2
1231,EmmaCristina,18198,c146ced6700cd3a8b672771f04a5896f
1232,SadoMazoTyan,18189,3bd8e3f07192206b9231df9b6d0d441a
1233,RhaastK,18189,d35516de69d74e26a4a4ddc76cb59d6c
1234,asazakin,18174,28bcd93b4529799049c13397664816bf
1235,NeoSayer,18165,54c53990e668434c06fdf3982f5a309c
1236,LadyDEathEye,18082,495826b3eddac297b7570b198d9ee8ec
1237,TYLlLan,18064,fe502e8e7502ca0e31c6145447137e39
1238,Xphire,18039,8f44252584ef7c5ffd703173aabc79fe
1239,JIota,18024,28fb2445a9d6b5f0aaf94d3d0d747f6e
1240,Kis.Of.Death,17925,07440207894b696acc85bfe952487ff1
1241,Mydearsiyi,17893,670e302979cc7d2f9438648121e673ad
1242,Misshotnun,17870,890f22896da24c13cec96d7434c1ff9a
1243,SeiraOni,17820,3e1eabfa0e6bf70b3d05065d2a63628b
1244,Yeximar446,17804,50e271f81ac368b41b83cb8b85118fbf
1245,Misdna,17792,8331a6486e4ed14bc39cd80ff589c5b0
1246,Esdeath182,17772,8830ef0ac0cb30b83750585c0f3cfe95
1247,RibOfAdam,17769,5cb63b67de6d63af6359ec0ad4a56cfe
1248,Crypha,17764,45a7eda7695164939378fcf36b32e8ce
1249,RaikenMIST,17714,96e2e59eed1460d9b1ed14c2d7377a5b
1250,LustyYura,17608,3e0e51e47c85800fe595a4e5c796db25
1251,VampyrLady,17561,88d6520c6e783b81bea00e7538db675d
1252,Mitsuzuri,17536,91bee02b5cd6d2ca1ac1d4ee1e289905
1253,LaDivaOskura,17522,140758bd9cfcf7ba5ab9a07293204586
1254,HoshinaUtau,17493,4813e3b2b514dac41bf05099055efc74
1255,BulmaSuck,17477,4236327c8db7f87e706a8a4183669bb7
1256,ThisMissWolf,17426,c42e87daf9bbabd2ef60f6832cdb7190
1257,EllyMugenkan,17421,87794c67c30fbb53fd1650dd57e41a59
1258,albinakl,17357,9b49c5d855becb99c725955d91033901
1259,Boog1e,17331,bc93e2d44587d6b842170cb9d5746a16
1260,Amidone,17321,35fb392bbc0ff707aca15e32325c4735
1261,Rochita,17290,8521471dc33e2a367843131e25a420c2
1262,Naerina,17246,3f91003e2ba74233726f532e9aba0003
1263,susan21,17229,c77435ab95f9b86c3a3036fc69162966
1264,Saeli,17195,5d5c0d27e992e070787f25cfe832f84a
1265,KamiNoKenja,17192,b6cc890aa161f609bc6c0e411c7804ea
1266,Rhaku,17168,f33507c196a30a8f57726103759bea41
1267,CACHARA,17164,6d8d63c9b6e3396bb76e82195a41bc63
1268,Stomyx,17154,209886061b87c85ab3ed092fb81b1b35
1269,Erinyusu,17105,dd899fdf4f99ebc8c4c91cd60b20225f
1270,RaeLil8lack,17103,34fb0120f04849058c7cef6a409eb774
1271,KuroNoKunshu,17091,8d2f824f147daba84748c912092d2873
1272,Yairi25,17084,1499fb5e02f613d14caab899678d2265
1273,nightbitch69,17041,2a0df999195bc01d889d3e8681fc7133
1274,ssdghk,17023,b371e2009c6bae52077e2bae48e41f23
1275,Chizure,16988,a80084be7f1ea53d6914837861af3739
1276,Jhumaru,16955,58341c5b18387abdf41a498ea6cc88f4
1277,BrewIt,16885,11fe778a3fb68608d6c38e5eae7c233d
1278,RootsOfUnity,16873,fab7e0fb273a92d62f7afa76468b647d
1279,DEEIT,16847,1a26cf6b203be2f27ab4b673e868d895
1280,REMno1,16841,213b6e5a5c70a6a23394c7782908eb38
1281,Ewanger,16829,79d17821de71a9f99d8507549aae918b
1282,NevanX,16754,98e0e9fc0203a7f2b119d5758b226184
1283,ijiadhugadsa,16711,9258d4e40e81f41f5e4bfdcf1cf80390
1284,Iscariots,16694,563e4ae38b96523ad2cc3d9f61f1424a
1285,Rhosaline,16686,645d510b140178c84dccb1f57386f556
1286,Jeanned`Arc,16679,014cbd21e805abb74a6665d6582dc712
1287,Daineris911,16674,678143ed524345727f0834f6231b8690
1288,AniTheSeraph,16668,f7f3dd267e699b28e06c557644c3153c
1289,YangChenChen,16663,5aaa519ce035eb1fc5f3d05aac748f39
1290,WendeeLee,16632,9d0a938effca5a0ff010c70263fd2cdb
1291,Anadelle,16629,2617f8702d309c0b8729e8c11e14ba7a
1292,Miestres,16612,189ed19ee2e01a419fed2cecde24e6b7
1293,MILANGxD,16551,bf1dd298d9f8ca0fd67f5906b7682e70
1294,Smilen,16544,cc68fb5bd4fb9041eaa097958aace2da
1295,Lilianaxy,16543,3d3659bdd7b4b418b8ed0359d128ea33
1296,ObviusTraitr,16527,1cbc1f92394458695da8e37ea5da85cd
1297,vanigda,16513,b7584fb8904aef40eab55e8e693a0bcc
1298,SireLilith,16504,a675f0b295240f90bbd5600bd79dcfcb
1299,Dun1036,16460,7e023b52713ec4a4a68a8790c0d46011
1300,JadeMistress,16418,59566d8732fcdbe9d3542cc21c87bf7a
1301,Merunul,16418,c0fd65099df27cdba5066ec0738e24bf
1302,MissLuckies,16413,0e4e94eab6fffd8722c8b7764b51d048
1303,Zodi77,16375,252ce7a5beb150a4f2d333d3af918d25
1304,bien01,16353,741fbbe452fde59ddf49248dd8f30d27
1305,Cristels,16324,8a2ac1dfbf05e1bf3020dd040f319832
1306,yizhimei,16313,6a36953ec5bca965995ea9a9c49d8611
1307,OnePenance,16303,a11d863ec648b34fcd6d288faf7c495b
1308,Adiolos,16297,79137c5ebfa641d84903ec01b5382d2c
1309,Hermionne,16293,f8ac2ef92d0f24521d0bf220588c141b
1310,Zatria,16278,14fd10043fbac4dd956b3250c252a72b
1311,ChungChuQQ,16265,92b0b3d7affc3b309eab5c58c9a35568
1312,Yukena,16246,628c965fd3805d6f0581c024c2edd213
1313,DragonRayana,16244,2b3a365630435f2c8e31cb1873c1150b
1314,missyelis,16224,4e386d398e05c0da7471791319167f38
1315,GatLewd,16180,e98eca421c4954e8e617a9e618c0d0a4
1316,SacredSelina,16177,adb31bb719c352de059b742085f0336b
1317,KillerYour,16169,0912ab84558765c4bb9ebfe82fb011ac
1318,KirinLust,16157,6a732dc242a8c217756b031c42848026
1319,masrotaaaaaa,16154,bfc5be91efba77a86b9e03a46df9920e
1320,BlackRoselia,16150,93d47a76058865809efd755d60d8e98b
1321,Lov3JK,16101,ce2e346fbc025c54a5e84b105f10a976
1322,Spacifica,16090,7aa6d6989694b6196baea04ce63585bd
1323,MercuryF,16080,49d7c5f45640969b93a26109f01acf78
1324,neyoscuro,16064,667426333547d930283fdfd07ce36f30
1325,SkrMistress,16042,bf68b80411c6a50f87850be014eb36a1
1326,Harvester1,15986,2a3d368f20aa62457f872ae1b8e5c75b
1327,IGEICOI,15927,3cf035eec161bc9801ef274b8098c156
1328,AdaLucifer,15874,7e8e76694a1feb55ea63d5770542cf3e
1329,Miss3GOD,15861,e4498eddc1e49d021ae94c261662321d
1330,Iltuna,15859,e7dc63780aa14d81afc4784c31657d7f
1331,Masstys,15829,aa7f2e8b6cba0f88faa570abe7296832
1332,LuciferWing,15828,aae9faf720b19762c903ac8b30ac3d46
1333,BlackOut001,15813,269e9e30e6d69460a15cf54ba09942d1
1334,Nalae,15767,91579e0a10a517cea18ca1d98f2301d1
1335,Sylvuna,15758,41f5fe78dc35d4721c93c0d688980737
1336,MistressYams,15740,598ef9d29f49c394e7a4dd23ab5c8cec
1337,SeanCC,15699,a7cec0d737c787b082f5c387ed27dd2b
1338,RoseNer,15643,27cbea9db1ba5e01169d8f226e919a3f
1339,SeraphSucc,15638,dfdccc031ff83ec7343df23d685ec24e
1340,EdgeyHedgey,15602,8903ee9da4e54729b2ecc2f71bd1b15b
1341,Shu0,15589,4a11e185766864dc47eb8e1369785c2a
1342,MegaLineLine,15578,7b3a58940d3af572d30e0fbc7d8d115b
1343,villita2,15563,6e9e1e31f535a64792c3316af3050bf5
1344,PatiNequitia,15509,18028eddea05c9386ea6a8cd008fb353
1345,DripDroplet,15505,edfb318070682f79e03cf43efa5a8c4e
1346,Ezmereld,15503,a3b71efcd7725340e176e2c5de309374
1347,KneelDown,15491,173582518c10aa2dd8ec7daac3e3462b
1348,otracaraja,15474,93dbe7edb5ab46afefd6303e498e43e5
1349,Scarlet7Lily,15381,647c98ab264ce28fa9ba37debe6253e4
1350,Storaterasu,15361,e35950fb85b8a23f71041a8c814cefc7
1351,Mistresbella,15340,4228641c741806351b6980dc81903c5a
1352,Scytheress,15329,b1bc6bcbab3004085cb9e3c9cc61dbb5
1353,ExCaosxE,15306,e1eb5e70a8fc99f0410b8a573efed3e4
1354,Polkdd,15302,7e148e32d9154a6ca433111a17979062
1355,LH_Mistress,15245,47e5220a0a8de60e3b0f35ad67f0e589
1356,XDevilQueen,15220,61791b73ae2248fb894cf3f2c016941c
1357,Amyaaa,15218,ff3b84fb06e9ee060355de558ae7e690
1358,ForceLust,15193,74d65a65272dc6119d9a89ef98d5ac73
1359,gryphien,15173,c48458c1444e919211f83e4fd00d0f54
1360,anhei11,15151,b2d49c5c0dd3b8d4d8f2b1e4eb9afdb7
1361,SummerFruit,15145,4ab0e90fd387961f4a2fdde1e311222e
1362,Eltarial,15126,e5d50f1fb9a785bcf24a0342ec008780
1363,nomintron,15114,1ac77ecbe650617910903f23d0559f81
1364,marte21,15078,7b9a69dbdd2be3d826ac6555b1233558
1365,DeadlyHozT,15058,dceee2f07a7e986e87f8cba5d6972bba
1366,ShadowAngels,15046,50d72a93e217af9c07eeb08718ea1d10
1367,Serpette,14987,2a8f6e8da74eabb0453a1e23d746d26c
1368,DeeMist,14965,af99435a8347e72682722a5b914b7b8f
1369,Dixnlla,14958,cdee8959b1d91250776c310241fbc968
1370,rosma2561,14953,eb51aa3a42a2b3bae9b6ffe2c1705c6e
1371,Prishta,14861,dbb6625989de8f6868941065515daafb
1372,Narselia,14850,a47335d4ff7dd9a097f2c10cdc9a89ea
1373,Astolas,14831,7572170ff8ada0df5a298a8afd90f4f1
1374,XxMistressx,14806,d1a0a53548ba4db4f62c850cab132a54
1375,MemphisHW,14795,81d35bf545158e65213445c9eb52145b
1376,Nilvaz,14786,fa0ae32f98ff93138e8d66d1df09f1e3
1377,MalaiaIdyll,14779,b062fceab9eb74b91c299444bbcdac0d
1378,MetalSuccubi,14773,ea8bf6c848e54d3a4ffbd07b3fd92538
1379,LadyValenty,14760,da712a5e2dd27faede32599beda7e1b0
1380,seeelie,14728,5a696f18f2426fdd94f9f1dcd84aa31e
1381,kaniichan,14721,e004c884a16e97513fd963550838f01c
1382,Rinaiyu,14720,5f0c7348ce4ef6cb0e6da45dee177aad
1383,Shenxdiva,14666,13b6fc9415df98118f28065086a76059
1384,Ikazumed,14649,8baa0055eedde6368928fdfeb482416b
1385,mistresMagic,14633,2bae2c54fccec191bf9854fe170cc74c
1386,EpiCM,14628,09866acdb9d6f7168e655a80bb2aa68a
1387,Aestaros,14624,a53fd7d873ed7bff5b4ca5c0906af5d3
1388,Anastashiax,14619,eff5fc464cef07e3d6959a702095ff2b
1389,AliceWolfe,14580,8f4a3af355da73a60916907e5086f299
1390,Suzumuu,14566,4938786a920f6ddd2c62650e992f91f4
1391,Deahya,14560,77050cb37c771101ca86ba23fcc15c35
1392,YokoAyame,14513,eada6d3d4414909cf8d9f20641833253
1393,Kavdeemer,14507,70d213dda214fed0855ffad2bdcfdae5
1394,nakredeemer,14488,f3d625cba44a1b2dac9c9e426c35e230
1395,MakiyoTW,14453,a23e5d214c3d4d1ab4c72707a91b7fc2
1396,LFourthAunt,14444,af28dcc70099e0dded7c6c6b186ab921
1397,zOchaco,14423,db965bed9ec11340b0aa9543963e6a2d
1398,madresita,14421,7cf5f1224988734dc8c16700ad53a242
1399,jhinata,14369,467a6ec41f8db9cb4efda45e1232a771
1400,Airixm,14367,a0e19ec307e0bf91538725da93042ee3
1401,LiemLiem,14343,34774a1ca67966d03e9a18f8694ad92c
1402,dlMorriganlb,14296,49a46b71733c6bec5066e7c70c971213
1403,MakaStrauss,14277,8053361aaa0795c1f324abd1745300cc
1404,Djebar,14260,17c556d2dc55d1fbf8ccb88aea625751
1405,ArmyMistress,14259,a2eb8b906b0c529dec418ea1cd1ce877
1406,DarklSaint,14252,d78e9c8892b97e4edb24c76246894b79
1407,MistressPepe,14235,7649ab7cc6eca29331ea9cfc86a2ff05
1408,RemLei,14234,b899fd64257a5f6442788988176d40f8
1409,Ahwooga,14206,862384557f064a8f81bea16f6e6271f4
1410,FASuccubus,14194,ca9003259dfdb48b3290d55cfb0b79dc
1411,BeaverReapy,14162,d87ce67a13c66737bf32116a84ce7807
1412,Halideemer,14064,7e122565f0656db3b45d8a8886bc13d9
1413,LadyJiss,14059,f3cdc501a52f36bab3d7121f5f03b4ff
1414,HyraYeelvye,14049,6a2c49c7c1e58c69a4d4e8c519c645b0
1415,DivineD3mon,14039,a228158f39814643fc138a51f83a8b24
1416,Annabell6,14026,ab3db7c18096f1c095540147ab1a41ad
1417,Evarevan,13993,87276539a0800d693741dfb469b2d989
1418,Misesu,13973,8e8ff6b233a309d92f9c74e78d7f87dc
1419,Astarlotte,13964,1dfa4dbeff01fc2aedb8219c40124639
1420,SavitriObero,13920,cf47ae5b9139fa5ce491fc214de3347a
1421,SinSeiyo,13920,7c6493bf5c6f8e6a0c615fa9b9f3251d
1422,Mialkim,13918,41f88e650711a9a3693b267de014c21e
1423,mundo01,13905,485f9968627a3e2a065a71538412a9eb
1424,DoIWannaKnow,13885,8571551fe8fb457c97ad0a17e1963ee1
1425,SinSplitter,13846,36c50d6967c84ac08b721a9c9af4862f
1426,aguebowe,13840,ddbb6ff5302003546c58be0223968651
1427,justlupe,13795,e1a55346b468fd5cf14759655b180094
1428,Kimitoko,13795,2f2ed5f9ee0e7fab82cc5276f3341972
1429,WolfScythe,13780,82d757600e4ce898e2b13ae58d3408c3
1430,MissElmoo,13748,36ea773226f3fe2ec12790738553a4ec
1431,SinBusterRei,13741,7db30329d25acc1e6a60000f99cdeacf
1432,wednsdychild,13726,82d78e5f775e55b0106ac46309cdbf4a
1433,FilinGM,13719,77d94fd507e673b8aba3cc0eb7ed518e
1434,Taishikyoku,13709,0562186b20a4a880ac7a89674461db73
1435,FlareEarth,13700,acb9c4bcf7f5216e09fc71fe5c75a902
1436,EvonneDE,13687,b37f9814769cce3177ba1d8106147877
1437,Secilias,13667,f5aaa933a89982a8c32eb5b40e1306f1
1438,lElisel,13662,3d7b6f8e43d4e7e0450a950b9e6c85cf
1439,0ofallenero0,13662,c2c4cda4e9624d9f788dcb586c5de96b
1440,MistressHS,13655,8bad6330300c519a91d0924bc911db6e
1441,Thalyra,13644,745437f793d878226c49e8fdddabd3a1
1442,PIQHASSJT,13625,a78f926f34c1c517529f12e4a01af87f
1443,tothh,13620,217b9246b1098765ee4c0a36aa70e4b2
1444,Yusaria,13617,714c2edcdca80631ba15b1911c3294db
1445,xlAkenolx,13581,12b24a4c56022236806255c7cd0a7996
1446,NumisBoytoy,13577,9b6a219685dbce83c9221a6090f9ace2
1447,LolaPaluza,13574,bfb33184b3b96e8e37854deeb1044a7d
1448,Devianlil,13573,181137472a716ca9bed7fa52750b43b8
1449,NunRosaria,13573,40d1b2966a3cb1a540ef78ac250a1697
1450,Nikabella,13564,ab53d41ed217e02fb52d127383164916
1451,Gimmijoong,13519,735685a03a1b6bf4c1104b94ed635f73
1452,Mistrevia,13491,96ef425102faefda114309083b8a755f
1453,DemonicKuin,13486,49a431bfec0189c794efdecc20989076
1454,GuildMaster,13476,f1e4768782a5975c82f3a4b977c8241c
1455,SsMistress,13468,6a49a476564dae1a1c01f78d5541e9be
1456,xlShantilx,13442,b36f752e14b0367d5c0b865cb8466232
1457,KillFast,13428,e5b3fd6eff1d33a37be5fb621e26bd9c
1458,MissClocks,13352,8b014a31607df43d506d9e212c616c58
1459,cocosv,13346,4f5c6b4287a11525d89f1f8de4ce7b09
1460,SugarIzanami,13326,e9e5c6057cf7cd4920b58c635d7c7333
1461,VEXELSTROM,13307,12b987e9b9046ecda7398d0793bd0583
1462,WombTattoo,13253,a27ab25dacfe21dac4109b1fd6cd0b65
1463,VioletSakura,13214,66ef067d0efd0c721ee887f3932d07b4
1464,Phant0mSin,13128,1cac5a3fb73530c61ad5d6cd58b93356
1465,Namiizumi,13116,69d12cbef3c677a675d6a8e1c8ecc4f6
1466,AdamMistress,13110,deab6590f38c78ed91c1f073445f8fb2
1467,Shalitear,13109,11003e9b656798c7eca2adf6a5194cfd
1468,Demonicdei,13103,6b22d6364be0efb54b0b0e8cc76c2dde
1469,soofLy,13081,9acf4a42918c4138fb804277a33fa874
1470,Syaitan,13080,483a91217f6b8b4a408373ead00649cd
1471,MommyYor,13078,40f71d977745f7525a91ad3be3a82dba
1472,Maau,13043,8ae70304258484b00ab049b38844f739
1473,V3ronic,13030,44340537a1d69fbb6c136b1d37d743f7
1474,HyunahKim,13025,fde29f97aacbcfb9b476447bfdd26031
1475,siratt,12994,b409be407ec22b0f5973670a641f610a
1476,LadyinBlack,12979,27ed4726bbc961669aea294826378844
1477,NorthenSky,12949,1352d0d6feda92ebe161aa32423480f0
1478,dxdviexn,12931,0fab2c550c39406f35399060d138761a
1479,Bibisay,12930,3e72b63f043bf78e658c5bfba03918a6
1480,Laririel,12871,45a0419e02b289af570004138826296c
1481,TMMDemon,12834,e1b4e0c3f57b6f34d16550e8f51ae742
1482,NovanPaladin,12814,6deee742acfbebddb8a5dbe3d3825518
1483,MissElement4,12812,87f25bb1e7c676834486face6e309ffa
1484,Zroforever,12746,1e4ecaaa36cdd13404d1d9dad37bade6
1485,Alfandra,12745,17520c3c1e26151e71c090d9664a197d
1486,neomistr3s,12744,8b7167c224e63b1cd0652b4fce47d4ff
1487,BearBella,12697,f063f1315554cba62d339babd0a64ad8
1488,Litis,12697,bb0be91f424d114bc002a5b11df544b0
1489,BHLevial,12696,842503a4d898cd87922e88762c50159a
1490,HelaxX,12695,07b5ae5937c6180eec5fae20e16a2344
1491,shawn7,12658,18271be7bd9cb306f7d677813879e278
1492,bailiad,12630,3bf7e8d2ca6bc95a5b3a2d90b219ec15
1493,Syhes,12623,d51344855c1e113c94dba9878900dbdb
1494,AllyCarter,12587,bfeca0fe795d3433cb5d267851e782f6
1495,Athenaas,12576,d7c7651cc712a0e4012c1c54919aedb2
1496,LordRenamon,12563,1d368377b76c251a90246242c9ccbe91
1497,Myaska,12562,09e999c920677a96db998883f65e972e
1498,8bitScythe,12555,3e1147feb0c468fdae719d5b2fc3d0f3
1499,TDarkSaphiT,12501,3258312a503a1ce95027e596e4918240
1500,dogownermist,12489,303c564702fba3b817ad3c516c57c608
1501,VioletLily25,12356,ffc6c8a6434a5352f612902c89c35db8
1502,TgHoneyTea,12353,162e7f47fd7afcf7877fd749106089a5
1503,Sexlia,12332,f2ddc8294e92a5fa0d056ad885ebe4ef
1504,Adassa19,12327,54ff514b2c17a87734fcc0fc55c71117
1505,valentina19,12324,2f5abfe5bd1f51b9ebb6c25dfe63a88a
1506,IzuxEloshape,12314,395679625dac1a318f8960b0d2d894b0
1507,Mubartai,12303,f4818eb5027b6094023a54802531b7ec
1508,BloodyWrath,12242,fcaa29455798186d4f41dfd7fc6b07c8
1509,IreneFlina,12236,1f4afaa996bc3e56f940819552ac6d0c
1510,xKlexah,12231,368f496fb89e9c28554348b4e1bab77a
1511,plzgibname,12188,f26b1b33afd224b423c664c481b3d308
1512,Ruiyi,12146,426f1e33c7d4db2f6929cfe7e2f03d37
1513,lLadyMichi,12113,b470fb3a42becbe1698f7d7225b4c220
1514,PeachEnvyus,12095,4cf72fe53f849b46bbad8fd9c1c3fb51
1515,SantyMaria,12092,bdd0ecee3993de0aed274e5f211d7439
1516,MyLoveSiyi,12089,2c27997fe3f70cd5c55eeaf0acc09da8
1517,ReikaOp,12068,7763b2b340b0632c5f74ea15694a9a87
1518,HarlaownFate,12067,042ea78baab98832e46159b24aba390a
1519,Akane17,12058,34a3f6e9143b1c1979c5c57b5e4e355c
1520,santitax,12018,487ac4eff23cb59cc829ee1c8724cbf0
1521,GreatHoney,12007,eb7672d58da2436977674cd5981babd3
1522,GoddessLuna1,11999,d250d5d35b2a52f9327bf601b7ad94a9
1523,ArchNanna,11976,0a7ad757c93f2769df923eac4fde757f
1524,SashaAlter,11922,5c31281676e26b069fb92c0fd8955b47
1525,Lhilith,11916,aaa09afd0d3165a4b54d4a9b585f328a
1526,ogurayui,11910,c34c614e6b536a010fc7cd8dce01d9c7
1527,Mistreeeeeee,11901,894937d7702421d3d58b208be5be5a3a
1528,LatexSonia,11888,55d791f055373c845dcb6058633bf808
1529,karenai,11883,17a49672680203670a13e8ae43d14b44
1530,Abtsc,11857,36c2f0b96e68b213e90323721337319c
1531,CuriousBean,11822,c8760332a6ec56df0c124e30f93259c4
1532,1PRISCILLA1,11791,87d4af54a820e654c091fe522dcb9fc4
1533,sdsadas,11764,4519c6bf3224f931061530938f5845ba
1534,aekarina,11761,fd62deedc6153fb7adffad5b87f7b595
1535,xlKrystilx,11734,395154f279b83e2da053d6e07e16a1d3
1536,kornana8,11724,b4c25459cb054b4da29e0904deef54fd
1537,Villacres,11668,bf63741e2f78b7459caf89931e442508
1538,MoreSins,11661,0979f6a2183ad215c35b820ef7b68807
1539,IMGAY,11654,e348ca8cf110e6958bdd5aafed787126
1540,SisterGloria,11651,1704f840f5dc6af4fa7718a62c5c9d38
1541,makiin,11642,50647ead1ad065b724c5a2559c709b9e
1542,MeiKatsune,11631,cd28cc38714159f6a749d6d06b22c1f7
1543,Draccona,11621,d1360888758cc9e89d8787985e02ca75
1544,lRinkol,11621,ed14ec9d72c78441d663b202a21b9dd2
1545,Musitor,11620,40a9e12ebb2f365f5ee6b13ff7cf2ec2
1546,xMasayoshix,11596,cc80ee31e8a18871c2e6ccb3031ad7a1
1547,HDMamiMilk,11588,6c1bf96119fe0a2afbf9bb9ccc8f2010
1548,Lulu23,11562,f00e1c8aab0b9955fd09eb6232bd51fb
1549,LoonsLotus,11521,e1834a81822b51f4e80f2067f96641a0
1550,NoctSerenade,11503,ed4e9b1ff15b57424d3aa0bba6866856
1551,chongA1,11497,c42b1003ed0180966bffeb93f3e5696c
1552,SinCollector,11423,95f85494fa385c6566326864a72e8225
1553,SanguisLamia,11390,4582ded64dbdc5bdcd31e536558af16f
1554,infexnat,11379,c68bd97be45c2e1d79543ba2eaddcd8c
1555,TwitchGirl,11368,351c95a79f469f75576199b352949b39
1556,HellaStar,11362,a2bae7d7ca2520b47991408330dfca45
1557,SIxiaoYI,11338,83aafd3ac743fb0eb2792d4995d0b630
1558,MissDespair,11316,e84e51475ab0d9a46cd0e9a31940bd89
1559,ShinGeumHui,11314,e78e04420c1ab934ef6ac2a074e10d05
1560,Qata,11300,3f9cfaf16d4ecf3ca0537447ab7203f2
1561,SheKrow,11294,ffe834d69d88a0459d2b21bcd7f76104
1562,Cysteia,11229,7bb72b5e60247ab252827f06cada8bb6
1563,Saten,11201,c3d58865c3b06b35085d9dd50cf6c4dc
1564,Sinclairia,11177,21dc6d7a842145615d3cf4b5840b4013
1565,Msmon,11165,84464aec07b747d0ecd61cf2f0913cb5
1566,HerCreamPie,11163,d5ce86974c9e213a7df9cc64abc8e860
1567,Birgia,11150,c70ae3aff8dc98d39744c4d629e4c1e6
1568,x0Babanana0x,11144,59f8459f21dbd51d0d553a6db3abb4cd
1569,bbbbbbgun,11105,bc0e732d0bf5f146d6d0f238fd4cb940
1570,Aeonvars,11052,bfdc6c35ef909555651ac1e7eb2d7f98
1571,SenpaiRP,11051,b6651ce7b36844504413f00bd37db375
1572,NeoSigret,11045,443ad04bc0828a3e4fcc661c786a51fd
1573,Aizille,11010,675474d10e3992e825d243d7ae386462
1574,Unohana0,10982,b0acd7a88dafdbe1b6c11395e52997cb
1575,ToxicGirls,10976,03522c978d4224fb0b916029343f9537
1576,Tethyra,10959,ca361b72c0b5fef188254c95a587749f
1577,7NightsDao,10927,5048f7e405588f402aa4bb5bec081309
1578,Mirozuki,10925,ad81abe00e5e53d87ae998b17fb3e97d
1579,qyui,10922,eb3262fc02c2651361adb6eae2f91d57
1580,maga09,10922,437b17338b4c8442855de711d916ac11
1581,Emmio,10922,50b0ca3fd972e54ffdc8815c20dce45b
1582,NeoVylixia,10850,0f771f2bb50cf09157573e6391761331
1583,Haadesu,10810,c5348de1600ca88ded04f2fe678d733e
1584,churabit,10800,095b4f1ef6ee305f4d2abe80c96dddc7
1585,Misstres,10787,e3a6e7e9d8e34a607b3f3dfa1aa71bfe
1586,Aliesar,10777,552f0089e952e6c7a0b3fd55feeef513
1587,OnlyDriss,10776,72c485b8a25d315c42f8474f08d18779
1588,Leionia,10774,748a730ca39f747229e1fbd25d9b30be
1589,HewedFlesh,10753,d889109c084fc079f2a5060e142cb653
1590,Vamptress,10740,d98418f949092108a3e95dc578cc2440
1591,Jet1x,10740,431ec43de2ada0be712bb1d551a88628
1592,Dzinder,10739,1d93f1aa7e08917e9d46df91121f90d0
1593,Ruebel,10734,cc089698435ee200a3d0d53c5d30b7fe
1594,Aeilynthi,10723,12179c41cdb5f68c220a44d2c9d05cc9
1595,YukinoKouya,10712,66fcc3e33646c77d843bc28861150808
1596,xLeona,10666,2b1362b842f1f68d11e8c0f6e65dcb47
1597,NxSinSayer,10664,8ff8c5c28ab11b94a6cbff1566f8dc59
1598,lilithdevil,10660,026a7436e5fbdf7d66bd132f19c99113
1599,Creason,10658,f1deed2dc2423b170ab336e5c97612e5
1600,sinfulgodess,10640,ec007a141140925317a3f7a31a603258
1601,StepOnMeUhgu,10631,cb793ffad963d3241e9b6de60655930d
1602,DmusicMD,10620,33941fc4992c72f3b8f1a9e901bc1549
1603,Adeptah,10603,1aa5fb4f95827333d121417c803cba95
1604,AyuzawaMisak,10598,ee18b9e12b718516c3f27303aeda2206
1605,Abracatabra,10596,2a4104affd86a5cc4234520b8bbcb758
1606,Aeekari,10592,d1de249b7486be7f79e56142340f0b4b
1607,MyOnlyOne,10582,2beb4c4e7f483f383b1a84f112e7752f
1608,Nellel,10577,96f361ee6fc81ba30615f3592611d1ec
1609,Gusgus,10576,d1cb817e6cc1372d9a2ca3d1f99be9c6
1610,Buyme,10564,066a6d11fbfe31a8c4902ae80fcb8403
1611,DuduM,10495,78fda878b8eb15eca28154130125896d
1612,Lyrrinc,10475,a0a2ab1fff2abd31c7041dadaef50971
1613,Khirwen,10412,c28d819140b99476f032cf3973674f76
1614,realin,10395,1891de8460daa8ea8291bbc2db47a682
1615,AikoIX,10394,773782b72004cfc78ac8e77fd07867be
1616,DeathDescend,10387,10383e4846fc096e738c5bfc3d4d146d
1617,EdgyReaper,10383,eab97e4bc334ec0ed3c1f488523aaa91
1618,Drafmoon,10337,37c2a0a7ac60c7cfc833359a2b2a7af0
1619,LEVIXTHXN,10337,9fc6883e7e7f3040f38c8659bdfd59c3
1620,ElliotQwQ,10337,bfc7820e673e6d63d9d32f8d34111362
1621,Asime,10337,e6fb64cf369c1ebd91f2a1874ddd460f
1622,Suny45,10337,3964451435aab9d81a29b9736896596e
1623,Ridicula,10327,fbc859275a6fca0e2a89c05ba3abbd72
1624,SongHaYoon,10324,e70b1de646f232af3b956ea5cb6b0713
1625,Alacalibur,10307,2616bd1bb296de322d2ffb28722962d4
1626,YUSMELI,10289,f97b522119704654852fd8c7b4c7d777
1627,LilithLaby,10263,be887f09344e5350be8396b834b3128e
1628,xVyxerra,10243,615aaa343345ad4e3de62f151763d6f6
1629,Shanora,10225,f39bf7d8eb6ea239dd4191d9991662f0
1630,Maddalena,10218,c0ee9f2c90088238d2e4ca973e9acc27
1631,Litenna,10210,a0fa73fccb06447a800cd17f5553cbc5
1632,Ryuj1nn,10201,b55650c797c52817c30cd3ffedc33ab6
1633,Kalashu,10188,00930d58bfb8eab206c0538ae70b33e3
1634,JJSTASm,10187,ed8e60011eb7041f19edf48773294589
1635,SinPrincess,10163,48e9570ca75ba038f95ded47d534668d
1636,Mirtai,10160,a21a3a4d83e1bbdd1779ba0e063a832e
1637,RevMistress,10137,5a4e30d5ae55b42b481f996b83a9fd44
1638,lamejor008,10084,ee62adab7a86e3cb8207d0a9182420a3
1639,Cescand,10074,5d3a8afef8b3753aeb55cfa7000c66f0
1640,frangod,10063,1f126cd475bf0a585e1db9e2a13077f5
1641,Afidia,10059,f731e91630828e7550de3ca11b333692
1642,valesitah,10055,9b29c8202def437f47b01ccf8fed8a72
1643,DominoLordXX,10055,4b46f796650a1e699987a80e7686edbd
1644,Possoelodf3,10055,638ca07d25e2122b16c4a63ea064cbee
1645,Glosette,10045,034ac00eff97220a62622648daadb614
1646,Pr0serpina,10036,b05bce47cbe4501c70246ef9d8104255
1647,MySpiceGirls,10022,0dd61fd5c6913d24f9c4460e98a266e8
1648,kvasioMS,10008,74d3ef655a02be63ece03d64ed846b56
1649,Supergile,9996,b572fbd62d49097e68168564e156fb85
1650,Karimater,9992,fe34557db1a17739dc77724784c9da53
1651,Leahlith,9973,915958c8b02927ab1faccf88561a6791
1652,ZNO1,9967,d44fbf989c789551f55ab4b4c52574b5
1653,ShiningGabe,9948,e7b0517d3fa104fe2496e0b9365a5d0c
1654,Vidonia,9940,5c939e87e1b78442c239984892049bd4
1655,Cristelia,9929,cde4cecb3a3535cb95b6f79ce63217ae
1656,AzraelHel,9909,66e9dded70b5fdd04074c5f42eaeb03b
1657,shalterblodf,9890,dda0c9d2537777840232d9eee8ffd02e
1658,TPHD123,9865,615b154e2f2c391d924fbaa802e330ad
1659,Misrosa,9858,31e465d4294e4761e92e61f44bc1a5fc
1660,Xrayer,9857,f8e2ed2277b151d5edaf1eb40433be64
1661,Mistania,9823,15ffe77e95ab29e152bc5d17be5b7d99
1662,Nossyla,9811,cc64ab99af09db075f647cd13c727fa1
1663,whatQAQ,9785,71c91ad5d3db415fbab111b9a729b4a5
1664,kamalanna,9785,c44851f1b6694d5691b0c902230cbe30
1665,Daeliah,9785,f57438903a096963ef033821667333e6
1666,KaleAllerion,9785,5d8919b0c5bdc0fdc09c58847a28e8b2
1667,Diqqliqqer66,9785,07aa7bdb1080052e3e363340dc6acc97
1668,GLoopisIS,9781,6e90e7f3dc968765c6ffb963b0e17f7d
1669,Nelablack,9776,23b54a2a70176fe385a23c6a268567fe
1670,IXBlackluisX,9758,c14b07753174bdd8791347c9d07b834a
1671,Vixera,9711,5cb076d2120b5fdf9161a47d46dc3145
1672,LustfulYen,9679,55f89084b143935de3b558923cd5eda9
1673,KuroMango,9666,78cd4919815eb39679634ca62e0f53f3
1674,Missparavend,9658,84ab69a353dc513e16f3f547a527f774
1675,MelonST,9623,c3acea0de848c34d94b1823729265c0f
1676,Erysh,9620,1437155cf1513b54ab8bf9ee1907f344
1677,revengerTW,9606,2d006ef524130c495956a765de44426c
1678,Aastrid,9587,0f41b9d00515e9c005045f8687514eed
1679,JubyVRS,9582,759240564a715b2df42670e07893fac5
1680,Kiristia,9528,e95c816c91e1d86c5ee812abe086bdcc
1681,pepirito,9520,243b9b24af1973c20bf80085b50b83bc
1682,MiraAlpha,9507,7d5747dfc0fe8cd8b81c35fdafd09805
1683,Harvestella,9500,550ec3a5ef7a4d745d4604db19494ee6
1684,Eirawen,9493,566cbd83a36fb62b211cc1e979a14386
1685,galsai,9485,6de705a88e5d56d2246018120f13dddb
1686,KaizerXL,9485,794036b7c787ac9fc7a156eb566ad92e
1687,Nakomie,9483,79c3a7ac84ed3d75cf792435a0a204a0
1688,Charil,9476,d6393fd3973ddc0102966e6772306abb
1689,Thenny,9470,55073e999653e766fb9d227214773132
1690,LLLIN,9438,ded983f8d8275e208b48e51da6003d40
1691,KiraDark,9430,c3bf43be21dcdce5e7800c8f11115abf
1692,NanMove,9414,9902610c404d8adfc081c1d6a39b51d4
1693,TiaLusifer,9407,5bfdb4a5484d4e5297fba06cdf0e7a6a
1694,Kuryoo,9395,1fffa91245a557f92fad0a3339bd236f
1695,Annnne,9375,37c143a4ecb9322a81e948c889555997
1696,SuckedByLinB,9314,17c76ec7b47b679cd7e3d792b695c44c
1697,SeoulShenRen,9314,ed80a1a4814056e7e3a92ef5446ac3a1
1698,MATDS,9305,51b5b82142cce8c8bc8728a114ce4aa0
1699,Zinslll,9290,f5aa7d09da39c6f0d05440d6f633bedd
1700,xion13,9267,3a3d7f25fb704b08f9aa11dc66260888
1701,Queenela,9240,b8362ff4d3e15dad461a8e99b38d3725
1702,YogurtSin,9232,87ddbae6593477047eb7c6d223cc26e5
1703,Preordained,9220,92131f4e96934436857c60ac647b4390
1704,XArseneX,9216,1d69c131404e0196dc844cd85644a8ec
1705,Debaucherous,9202,0a50bf798dcb351ece129932e3febaae
1706,CuteEmperess,9159,282c2bfa823a78ba57b8964f44efd05f
1707,greypawzs,9142,93b28ca8090a7742fc901d29042068a9
1708,Angelesa,9113,00fcb2d3cc51b4d782ecc763b5162e4e
1709,DevilGrill,9112,151c70aa98c691d43b4dd8b27934dda3
1710,Barbaritza,9073,aead94c5b0997be053c0356e1a65a8fd
1711,Zyraika,9070,0bb44d4933e4d75df7dbd846aab5eb3f
1712,AppleSnacks,9069,06378b660648867d1040dd6cdb5cee2c
1713,BattleMaidDi,9068,181e5d64a6c9eb16c39ffe2f422ad647
1714,LarryKatanga,9027,694a5297ca5f1e4ae6282a587c867a84
1715,Sinmeria,9024,79514185d82338faf357725b17f31a71
1716,SMAnita,8971,ddbaf212b2fd1de00b326a2ae8672f5c
1717,LustitA,8966,bdd3fa0a996ffb4744e67689b4e07e8d
1718,Chaosse,8959,0baaddf40f83dac89cca07f41530598f
1719,PhylisWASA,8958,7135a1705d6185a761a3fbc0c6abfb58
1720,Marryn,8957,f769cd3fb3e921a55c73e866f4f9d1b4
1721,SaintTeavnta,8951,41391ecda2d500bb63139ee5b02f0c77
1722,squeezesemen,8783,d4b9fac1dcc6b8d51ebadd7be134e64b
1723,NamjooApink,8758,96919abf8f75764d3d79a8e59bb31893
1724,YaagisShadow,8721,e5f809ab67a6557f5b32f2efe961886e
1725,KawaiiLuxSa,8698,ae0bb83faa3ac5e3d97deef57ea71739
1726,sexxxx,8683,a79cec257dc1e55fd9ede7b692a3a883
1727,RoryChan,8665,602054a3ac3ff4ac848f1aa66dc9ebf3
1728,Falantiya,8648,a4bb0b4a5301d254353825acba8870c0
1729,Enoshu,8625,871709d6bc317e25c870af4dab1a414e
1730,Eeviie,8583,9bd9fc28b97846273424c687b69a510c
1731,Chulachu,8578,d5a99bc8174d5d819539cfed007871d1
1732,Salamandra3,8578,28f943cb501259761f2b023f49ccd2dc
1733,lonelywoman,8530,fc5b5ec157ccd38b2bafd6bc422b692b
1734,Taksii,8518,6b079ea7cf818c2d3e7b0388560dd549
1735,Mistress168,8506,6638ea25c4939230358ae39a6fcc909d
1736,lBabyGirl,8495,0bd47454171deb3ca654ea5a093fb85b
1737,LotusDemon,8479,14deac002a44ed53e1e00ec573af9f9c
1738,MorganaGood,8448,6a489cd4303de4ecd13b59fa625ee165
1739,MerdiaTheSin,8444,51784453861182a1e6f497450146faf8
1740,KiraX,8438,5571adaea8bcebc1a88ccee0a7110514
1741,TabakoSins,8401,92f850d1bfe59ee702c8940af729ffa3
1742,Marsaili,8346,37b3e1a1b284542390a96cf2d6ea69b1
1743,Currantcaek,8319,80a437fc37cfcbc9e22b9a398b5be922
1744,MistressArva,8319,41f885856b68dc1dd6244224590d5071
1745,luzyra,8316,1a3a81d0107faa427db638f19f9e7c88
1746,MeiShiraki,8290,ecd96a06921b979f53b604dcf80a1794
1747,PsNarmaya,8289,0ecc3cb4c559581603cd78aa228fc113
1748,Remeemer,8289,35aede534cbdadda9d928244fc6975ea
1749,Shiiizuku,8260,74165b73bc6ba032aabbfa5f98b9d69c
1750,ubrskzill,8247,79b271ec1cf77cc0a3323f92c07ec6a1
1751,Slira,8175,cc9656201ecc5bb51f6aa9b7285d21c5
1752,Gurumis,8145,5e97058e76db8f3fe5632710a68abce6
1753,Jezerel,8108,0eee11573c0e6c6747ac3c3b372413b4
1754,CatalyEst,8107,c877482ff8cd70864dacf94ed3fe6667
1755,Madolena,8104,06e2d7f7e7078402381a4a98e1b7c40e
1756,Blanchel,8102,71c209b7483620a2460908681c8a71f5
1757,EaterShera,8101,1f2f38aa2be9a7c5510f49aad1258257
1758,freespanking,8096,100bce3b6691d406e73244253e177f49
1759,Risselote,8091,e2685fd97bb22ea9d3253ceac8a8c69c
1760,GuiltyFever,8085,0bbc36af26f61fd45c9cedb3cc34ace1
1761,Bodhihio,8058,4dcb4f14f7db081a7f16a497d4f48910
1762,CresentBlood,8043,7badad3f948daeac8e2271b656813197
1763,Inm567,8032,8280e1b3aacc79c2b53f21dadeb3ac3c
1764,SinThotty,8009,f3f7d0a5333f0e7ae6ad7e85a254ff7c
1765,NigrumNoctis,7976,330af7b6fa8d8a994de76cc6e57218d1
1766,Andromeda21,7951,dcb9a424c58024b0388ff9918878506e
1767,WeebMistress,7900,e8888b70c7e71654c235153debba52a4
1768,Innocentred,7888,7726ee99a4f1ca1fa0297bcedfef1fc8
1769,syphax,7882,ea564381e006c2319cff71225e36b38b
1770,Qinella,7871,2f6667c91f1ddd852b03e01080e1df7c
1771,Nyarlily,7844,fdc488c849ec7e78d963143e60de4b1b
1772,Deviwoman,7838,8635dd2b75abf6487066a71a714f7e4a
1773,HaniAhn,7831,af56a9d682d0cc62bc66b2074b318a6b
1774,Symei,7808,8f4e4bd807ff9f7acb495c2110bfe836
1775,WiNtErYuiM,7786,a890884864dfb6bd68637d645aa32bf0
1776,XiaoMaYooo,7772,8fecf1c89625865ec7125565bf976c4d
1777,fuyoko,7738,c419b2cca6d043604d8a91aa5d8f38d4
1778,BLLSDF,7718,b5007b8edcd40de101aa7911aee610a5
1779,Sinrhea,7717,97f150405e338bc30fa3caec1749e043
1780,Rielka,7712,782eff9d12d6e74dc29c7a1b405e1a84
1781,Linze,7691,5b2726491b9cf38a5dbe5b27460519ec
1782,IrilaEhergar,7672,8928287650cd1abe2c3a42283631aba6
1783,Sinacra,7654,0045cb7c03b24c2cbef8be79f56ab9e8
1784,Luluwalillit,7640,988bf284e4d7c02def96fc3c0abef542
1785,Lunamortalia,7627,d0cb0512591aceff183cedb3c1b9155d
1786,SinEaterBadb,7627,0b1bebcb8233c36d3f23d6cedf91e247
1787,Zeifra,7624,6880551decc13660c12f4495338a930a
1788,EndlessLust,7619,6f3d2fd165668340cf4eeb31a3e6eb48
1789,LuridAosoth,7614,e4a1acddc864547e234a877b50f854a7
1790,Sedeusa,7567,f1b10b222a82911e1bc5f223b7bee273
1791,Casthinir,7557,3fb49f611aa820d08f8cbbebe90b11df
1792,Anonymous613,7554,3011c589cc14ffab755689d4a0df0d08
1793,Shiobana,7539,07f885c1898fbda5678f9e8ff16da26d
1794,Tathameta,7536,d838566020d7ba8116df1dcdd0ba4b56
1795,Fiyano,7515,7b8106d6b23c2d8076be0d40e02a4af6
1796,SinEaterMara,7497,e23b8130f2ce6098cba950de877dc25e
1797,LucifinilSV,7467,81c22e2b72a4f47dfc4ae6f2c2d059c8
1798,SakimiIsBay,7464,a2bf3b08d3839ae34286bbe3ece16116
1799,Ayshandra,7442,8128ed391210a49d8299dee651448246
1800,KrazyKacy,7432,f13ce8f886785d03eb44247d49ad465d
1801,Jangum,7398,b1585712955e245203d4ab60f50bcaa3
1802,DarkYandere,7392,efcfe67e45df5786ef648008aa7d37aa
1803,Anjanath,7345,138e6a53f1f85209bdd9a1a696efd6bc
1804,SingKong,7340,72870e15293bcf0211a54386de82a156
1805,Luxuria,7315,a818a3c9c78405cf10c336f0f47039df
1806,LucifrHotpot,7296,28582274647ba92cc9848e68b95316bd
1807,SavageTings,7282,76426e3ec3bc8a192f7070ebf2898645
1808,SoulPhaser,7263,221bf611d6965a048b2faedaeb4abc4b
1809,MALOTA12,7253,b505be6026b0c477f0c715c90c7eee75
1810,Mon69,7239,00ff09e277123c765c867175044ac4b7
1811,Foesu,7202,f27034b44a67a75986c7495e2ad73668
1812,SexyPanther,7188,7f6ceb41dd04b375d781c3528c263f67
1813,LadyDogma,7173,41014a8be9cefe458bd52dc29120fd94
1814,Mistinal,7169,d2dd145c69f8c4de4038a9b3c4bf53d9
1815,Altice,7169,8e49092a94ac4e22973e44c5171ae16c
1816,KowalskiTea,7161,b1d2d9fb7f557ecb9cdecafff53d9c69
1817,Arianor,7160,d061686dec7edfb37806e26febea9373
1818,vSinSayer,7157,621e25d52c868d8a0ff5171dcc50891d
1819,ShadowOlia,7151,71ef3dc052a10a9da6d9fe633a4fb42e
1820,Fahari,7138,d88d9c0d6b76fb5b026abc3bc77c23a7
1821,loz6,7050,3cdd9535ee66e1c6b9ada656c81adf37
1822,RedeemerJ,7049,6d33eaac93570310d906d093b1bd2b13
1823,Rias_Grimory,7032,46817ffc14d69d5093512b40db98dc98
1824,RedeemerF,7025,5c83ddf28ba97efda20d87c697720e4b
1825,MsKnowItAll,7021,f64400e510233a039def5c9b0bb2e2dd
1826,DaDiDaDiDo,7012,f0768e92af61696222b213d62046ccdb
1827,Terror_Death,6994,46cc7f60a3e1675a99fae8bd653507d5
1828,Veilah,6960,98771b95e278d52df4242698cc86ed98
1829,ZoeOrchid,6959,31eaf03ad3414f274a7f72b8fb61cd6a
1830,FuzzyLips,6950,a329f7ef32673e3351960530de2e8616
1831,Evelymm,6944,943f44d650faa5f393de5de428671633
1832,KomeijiFlan,6935,e7e69dd15248c47488a37c2bed2fbcd8
1833,Yoko428,6934,246a2f7a89f5427de75686e5f67a2254
1834,NashiNoAijin,6932,9f55f7b4c5b1008a559af9fc65b47704
1835,LadyArin,6893,b59d5392550e804d0ba27dd55dc8d711
1836,FoolForUYeah,6873,a396aad283526bbf87ac72615adce34e
1837,DoggyLuLu,6870,7d9f3aad54424cf062a12ea03635da9a
1838,LadyKatalina,6848,2bcc73756a521c22861b51d9e533e546
1839,Uuhu,6840,3f2b4f242f41afb30534799503cc669c
1840,AnLang,6836,b3584c25e65341daa5e0401b676fbaee
1841,FellatioMist,6818,e6d83a22a0198375ffdea4fa0b166185
1842,Clio3,6808,afedf13e79f42730077117f990720e49
1843,CCastorier,6803,6b015810bd93ab8d6bd697ab13020c30
1844,Ivory09,6793,415c2bb121e781975b67be7170048868
1845,CureYou,6779,c242599d619caa07d18dc6e7e33aa8bd
1846,Kuangman,6771,bfe087e66c95df4781a0b9d351846305
1847,SUBOMOTO,6764,57aa07dbfe7ac2db3da1785c00da1a33
1848,MatsuuraDia,6760,8398e50d3be2609a95dba75829119a25
1849,AdminXX,6747,6cd1bdfc8cfd3ad938363435d80977f5
1850,MaraOX,6733,2c6f5a99cdd11eff5477ea4ba1f7e20e
1851,AHOYYYY,6733,6a6e904caada5a8a593af6e2744a4b92
1852,Qianghua12,6730,eed6c2135e740524502f040845a0d15c
1853,Dumahniel,6709,43ffadf12db83ccdbd4d83ee074f40a5
1854,Primavera24,6697,af6b6c36f53a3858ae352bba9753d6fa
1855,YuraJung,6691,085cb356f39da0e25af9445b03edde3e
1856,SnukM,6691,76adc72b8619665413d0cf6d7e87b2fa
1857,TempestMag,6669,e443b0581721d29c4cf21e97957e0d64
1858,Darkendark,6660,95298511edaf8b6f0c8b90bc373dc2de
1859,Thaliera,6647,384b41a1928bb31920a342a20cfb5629
1860,5inless,6644,107d8d6c8808846b87fa53a81dc662c3
1861,Vacere,6623,1ccd720d25e825c5f010e09845f3d16c
1862,ScyOfVitur,6623,8dd86cba76336ed970ef1800086dbc1c
1863,EIRNGLEIGK,6622,d02985c8448362f93300808350b4d50e
1864,ApicotBerry,6568,ac622ccb57f6ccf3c4483f1d27c1d315
1865,Lyxt,6568,2500bfa8c608d7329521fcf880cfda85
1866,badbitch202,6558,3fd96fafd096466647776f5f53b7458a
1867,Rimida,6557,ad94a99abddd31f356fc7241a60b3241
1868,AhWhatever,6532,2d3879ec394770f7045f84502c7140c1
1869,AverageTree,6531,41d6cc3113a7206995ab505c2a9a5ad8
1870,SadChungus,6514,2c4402c3d1d1cbc45a4302291097408f
1871,HeiSiPrPr,6510,458ec5723fc8dea95ae5003b327c78d9
1872,7SinsPopping,6507,2f886819000ff6c46767907015fd6fdf
1873,sorri07,6494,cd49d6589988513d008f0733cf0d64d3
1874,ChuaChuram,6491,c73891818e22d868e2b21e1682ed3bb8
1875,Ceirin,6487,3573640d227efe3a792975b97653fb69
1876,xSailor-Moon,6461,dec2b34c65e30bf10c9ba8fa5e08065c
1877,Shiraori99,6450,5c8bce3db29953d99e8838eb3f534b77
1878,SunmeX,6445,8a6e47cac61cb01852782cb42b10fe01
1879,Kattsumi,6440,db222549d3cfcc8a1f14de8bb34a7fe4
1880,GenesisGrant,6428,d89fa2c9713c4f0237f13094b31d5775
1881,Phrygiania,6425,cd4e11c2225ffbd12019686b7611f479
1882,Henutsen,6395,325e53bf0c3d5e13c5842bf669bf0f3d
1883,pensadormist,6390,d57ff7a40e37f4e3551b5bd4c5062ace
1884,PoorMansDbuf,6390,4ff45debb4b8e221a602bf9de03f7bdd
1885,EvilHail,6374,4f9cbcea522dd33ef9df122a4d00ef5e
1886,Sardinesans,6366,c6c0b5cab19090efc59311861c000e73
1887,DarkinSides,6350,96b72d00b59151a4eedf3dcf3f6b8178
1888,JoannahDark,6328,d709799683a15bfddc52c91b7230578d
1889,Hanabia,6310,3f3a3642b1a108b93d804996b179fd1b
1890,Athizmoth,6308,9097ec6d82d9a9d57673612672ef5075
1891,Isis,6304,ca6fa8363223a73fada00666a0e0dbba
1892,StonySayer,6278,218c946f96728444eeb0d76100fc9f85
1893,Petrify,6271,402a147028117a54324592849157d721
1894,OIoPriestoIO,6266,641da37d54b4a2296c0fdf82a1409536
1895,OmegaAngelo,6262,322484fa958805c99b8d0c2bf864f76e
1896,Siyniya,6232,d63ec3d3ddddb8d789c71953a0bc7021
1897,Lasciva,6224,e0181fb614a704cc9cadadfaf027a9f9
1898,YinYangR,6221,99296471f04587d94d3ef3fa319f8e75
1899,NyxHime,6215,ae88bb225e47f583c3db69bcc045531e
1900,okawayi,6210,a3ac2dcb7c14e9183bb9775b3ca0a53f
1901,MsYorokobi,6190,dd793f57a669fe2bd32099b6a37e9020
1902,Monina,6189,7831cd59784c42d0cca7f96618bc860a
1903,Kiraco,6189,a7d859b1dd3281822468a5ba5f7841d8
1904,SinSucker,6164,672104f44a8b128a61aec96e234ca70b
1905,ShenYue888,6147,8017ef32a0b7aec57a0f58045e4b2b24
1906,SIIAAGL,6134,4f740f66c0303c9ddd334210966b27cc
1907,nekoninjya,6118,236a3f5c27baf02ed39de77021c254ec
1908,CxKayle,6109,01bd1b7b54019a37f6f639ed9efcf7d1
1909,Aimani,6108,b259d16e3cc74990f88400b800659d75
1910,Liushui033,6103,6dd87c1bc26349fdc36da1a4da595cf7
1911,mistrezrow,6098,6224df434d569bdba8e45e2b43ed99ff
1912,Vaccinated,6052,91537261877aa257d829b71ac888d3db
1913,Miyuestia,6048,7fd54f1e58c21ecf80c0521f70c08315
1914,Eveliette,6041,75c1bc4da8388b595c0dc8819d51e444
1915,ApsaSeduceU,6032,0685e1e35ae85a8c4f823859b64302e2
1916,Nuwy,5939,8303b68139715156ce7117068561f534
1917,ReiIchiban,5928,b54ea9e0e5dd41b20a288298845d705a
1918,Isadorei,5916,e584a1e1401188948c94eb647e1c8716
1919,Jaxys,5913,ca60aa682b1541af5083364cef9a2471
1920,Somali,5899,dceebf2cae759133cba5b1c635a1e5fb
1921,TheEighthSin,5854,5c23107aafa864b677099d05d92a9f28
1922,Emuuu,5852,72c85d4eb5395aafd4a43f4892560665
1923,LoveMistress,5850,a2d780c89159f22103d2f34fe684d565
1924,SinfulByul,5817,3900cc4128636b3a0ebca30210ae2c56
1925,Dysphaiga,5803,565676492f7d1cf472ae96f819afade1
1926,Restall,5800,49e1f580bd2245bf58a8936b0cea7ca0
1927,FutaMistress,5753,b1b1f86713bbf9e25cc73a5833771ea1
1928,MissMourning,5703,bd68df6e22a4cd3cf5f38e30cfde0223
1929,Lucedia,5683,067bf520b306d1e7251f9a7b7d7ef360
1930,Mistresicity,5675,f618ff3c7735d477489b1ae0fd9e8a22
1931,SSWei,5664,715f1c82aa20e916a64ef1250eb22abb
1932,Strewn,5661,d79510ce9d1dc8ad3bcde864144cc4e1
1933,7SinsKomachi,5635,1880cb2beb2ad0c3cfb00adc2a3f198a
1934,AmachiSaya,5598,e75391ece9f95d8418bb6635c64d49cd
1935,i7Sins,5574,44ffc020ac25dd691c32fa6b4ef1945d
1936,DSaigam,5528,3cb3015346fcf306e9b8f4c02a23faba
1937,SophiaSin,5526,c4d924ab60ec2e3e77ec613b67dc0f8a
1938,JamesMistres,5514,12ab4f51eb9a61187ee19e3eb4cb6a05
1939,8ThHouseOfK,5507,30dfecda6939c8865880a13c9e60ad9b
1940,Sanguinise,5501,3fd6915e581651e4e583444c18700f2f
1941,Aetherze,5480,b83dea62717cdff82203fb81b5d8abff
1942,SheilaMaria,5478,4f01ada31c3f8b354485105f7864b897
1943,Albedo9,5473,6c6a8c7ac45d153a4084d273fe19568d
1944,SweetAgave,5460,e95da0c8847e5e23d9ba7477414fc8a0
1945,ISeductres,5425,a219d251413ba7494a3fa0933a065835
1946,MGLunai,5423,25f8720eeaa43f99d4a1d785ae8c0aa0
1947,sin142,5400,8c531c19b12a72d488a517574e06b4e0
1948,Ravensins,5384,5300948732e95fc03aac3e16506d5dcf
1949,MZiran,5376,52d5677263a57f165b27764eb7270fbb
1950,RedeemerLobo,5365,0a224e36f8aa459ed57c7bd82271adae
1951,BadSins,5361,b88172d162181fa8ace9627cd68d4a90
1952,Ehyla,5333,1e51aab070a8416be22f8adbd18eeb9f
1953,Ilyasvel,5327,8985519c100ce3ee674c650fe1cc627c
1954,Evellynne,5326,d3c10f44e37272e82b62aada3ba9fc7f
1955,LadyRan,5314,632d403926d625529f95acfa55d60284
1956,Esc0RT,5260,c7cabef3bfea29a92d46b5ba25ce568b
1957,ZeroRedeemed,5227,dfa47ac81d2e265bb1905b46ac638681
1958,Galaxy16,5223,61338ca2afc23a46311b7f322899fe77
1959,Xtabay,5196,387adc9a8a4b1f9fc3869c5def7c99ea
1960,HolyWife,5182,d572eb7c4d9b1eb442cbd358548363e9
1961,Vickyx,5178,11d0fbd64705cec909545affb1567fbf
1962,Hylith,5151,91482922d3076eaa3ad37c0e92e04bbb
1963,Bellzebu,5133,b54cc1a110eefb01091b5093699c6279
1964,Rhiviel,5093,2bd3f700566071f3c7542965409ec7c3
1965,MifuneMiyu,5061,e9fdd6234b54b054829ed4e384279318
1966,OfSmiting,5041,012267a81102a099893005e0b8955e90
1967,NOTRedeemer,5005,15810585524e72f9b9acf1da54afd66d
1968,onimist,4986,8f71d84b743ab53896fc7ce79d73b555
1969,Lillienne,4951,19b4d847b4a1ca3ce29407cdc32c0553
1970,Incidious,4905,aa1f4e47f818d4d630f72493340c1963
1971,LilimKiss,4898,483d7ff2c8de3044f7b6c69fd9d64907
1972,Sayanora,4896,a547e04fe9ba23b83a8a20ba1337f0a7
1973,Allisha,4889,79bf84295df8a6e126495298aefda2a7
1974,eudri22,4862,b23776922ddf6baac0b0b50f23ddbdff
1975,SaintJo,4835,4da8d42d8c3e0773538364ed90bae40e
1976,OsuRipapa,4829,524854522c62a4338bc77e760464353c
1977,XiasEnvy,4828,72939b83c388a1dbd26c60f400275705
1978,Safiarel,4795,3e3dbfa16fbbcc63594b8dcfb405ac40
1979,VanessaBlade,4788,2be8336cd9bd197da7a2e6cbe258fe7d
1980,DontBeHumble,4771,836c2ae16af1eb75caf369d10c81b576
1981,PowderPen,4743,e1e064cad3daa0de3d1ccab0c301ab50
1982,bigroleplayr,4670,6c8d57d76c4a71bddcbb681dcc84d585
1983,Lymslea,4670,061b090118ae8cea16d01d8c39e51c8f
1984,KisimtoAyase,4640,231974aa3c928efa76d5cb03b0d6ea6c
1985,DemonMommy,4634,3123f70105b22dad2fdd739f1927327e
1986,Edlynne,4622,ae6175611ae5d66417b54235b7e46b0e
1987,LoneSinner,4591,fab5e5c8fb72f27fcf74f6c284dc121e
1988,Edgestress,4579,bbd1799791953995ac658de8cb3fa498
1989,AsukaNatsuki,4556,7452e05c8a59b36c13fbcd9e08825144
1990,MistyHorror,4555,f03f1a53dee0606faac70cb2d767359e
1991,Umbriia,4534,c5ac92a53c82bfe4784e5b3625334bab
1992,Snekki,4525,fb12871c14bb7e1e40b6d3f1e31d290d
1993,SerialKiler,4502,b6af63b6f931ca70ba6848579a735bcf
1994,MightyLION,4473,2fab58a38f602ddaf823390031c79fe1
1995,Zrew,4465,3fd14aeaef36c28b7e0faf0c5afcafb8
1996,MissLewd,4459,3b53a04d7d99014c524e6aa66da7e0a6
1997,Zaraiah,4329,6a270089961dbe4c4df4c9d8779739de
1998,shadyDoge,4313,085061ea61fdaf17f1b7e669bc9691b6
1999,MuhLady,4293,15db13f3f1d3be3c25d9f62ccbda2ac0
2000,Desdemonis,4279,104102a4a01cb75280c6234aec967654
2001,DarkkRyuko,4265,f603cc9d6a21ee8e5cb8829cce6b595c
2002,Tonada,4210,4ce1d8cc51cf9611b4f21c1fccf7be36
2003,MistressBolt,4188,c589f0579f4d3be38a7e4c78e40e4b96
2004,synni,4179,92a063f46dd4bd9da5cbdc89f7952634
2005,sometimesupp,4178,94d6fa6c258eb191dd34fe1d7da2190e
2006,Peleona,4171,51904b4fc000255babe01bb1dc28bc7a
2007,Kouyaruten,4167,76b3e21e4e4c102867652dbfa4124399
2008,Kasugaa,4147,acf8224bce5c951855bf18f0e945f53f
2009,DeathShadowy,4134,2a7174129b0bd37730142b43867c6e25
2010,Sammymistres,4124,d4bccbf36d580525a69a1a46a837c93a
2011,DemonPitaya,4094,036a5c3bd9f823c269f963c07acf6f47
2012,ShadowSF,4076,113299bdff974be3830651ab74d1554c
2013,YorunoSekai,4060,0a667662d19a4610f51344329f11222b
2014,Aeyou,4051,d5d7c4841f0571994629e2991c3e7fab
2015,Ragra,4015,e8662cb4e07568d61213b8be61bd070e
2016,LifeOfSinX,3964,db5af8d4fee1dd0bcdf57d5b3f613ce1
2017,ULLKK332211,3959,71a281e5211f33afab5bd32ad2a67638
2018,Guayabita5,3956,a75bf84075974312906269ab9184bb99
2019,Seditia,3918,eeb1c322d1fb54b8c67600a437f0f89b
2020,PranaGirl,3904,e3529c354eb74d14379af256862f06e2
2021,Tokunori,3864,5265f942b4853c4fe46eea0ca1a85b30
2022,LKdeSister,3857,585a927d8faf0858251f1932e4adce47
2023,SOYplayMist,3805,7d80ed5462d4d3676671b788721bf9e0
2024,mauzelLust,3804,b2a7bbf44dedc16fad2e62845426dc9f
2025,Relishtress,3780,55dbc04c0625b59a98f5d036b317a12f
2026,fecose,3755,efef38ba05474b653d6e399770223392
2027,ThaiMilkTea,3715,45b967a76d620f0f414c4804d442cc47
2028,ImUrMistress,3604,bdbdb58c5ef3815d9cc52dc60800281c
2029,NatsYuukie,3602,ad794e2aee3a10de76cbe00c87ce2c11
2030,CKMT,3575,c969217f1cdb2daa01e2694b240b0cec
2031,ScytheAttack,3490,4c36780e305788fb968275b07c713b1c
2032,Succuboks,3474,c97735f35c88f4c0ef7566a5fe84e2e1
2033,Sincx,3425,2b4f4c6b11a9fd8c221dc19dd0974c0c
2034,ZanyZina,3417,10d5405e6e474b97d98669a7a7445c98
2035,MeowMeUp,3381,a29c400b3e7cbb183e0b7c322f957e39
2036,SinSayerya,3373,bbeba2004dcbba0f23815bc35111b69b
2037,Yaoseng,3359,7de4c32f8c87f9026541e81d1d345692
2038,Babyinlaw,3347,be1a7a8390a6946f0558ee5cdeaf600e
2039,AstarothLady,3341,5d9d56f9f023ef43b353ac4b8f801ae2
2040,Spin2Spin,3331,393bc073ba40992ed652f18a12ba5249
2041,Lewdaugus,3326,be35653a8a3481d0f612b32fd0f6084c
2042,36DMistress,3287,93a1f839996eea53c3a1bb84d6738522
2043,MagicFingerz,3224,c7170a807c59292fc00f5e9332c97b17
2044,HushBaby,3142,65ec77a21ac03a75f79beaa08faa1398
2045,Tisquisitor,2947,5d0b01b13e7be8d99f5cee854b2ab878
2046,Sieglindt,2909,4b7d783d456bee782b0d11b86072568e
2047,FateKiK,2863,d1b9c8a34e1cbb8e7a6af2f2e8201359
2048,ScytheKiller,2825,96ce6144f2ab07ada1dd9f760a3f9d5c
2049,YukoOruga,2814,a6ba2d86df046714ef4dc18f10a639ff
2050,xshina,2781,b26e1e4b22635aa73782b837fc1400b0
2051,EvilQueens,2781,213335ce2613d418e4ac416c1bb872eb
2052,Fr1ede,2753,c1fd44c003e4f697bf05e1191edc73d8
2053,Redeemer233,2708,44868f936760515f2cecec98796a0a3a
2054,FutaCheese,2652,3d0ecaf15c4cd274a92e0d82de4c13a9
2055,CocoLake,2606,44e9008f22829bec0577660388336272
2056,XiomaraX,2573,a85cd8bf01576728a262a0ee60e38f30
2057,Dysma,2571,c17791840f106c8e2715d9a074b32176
2058,CinSayer,2567,5bef1cef41e1fcfdd61d0b86ddac410d
2059,Transgress,2557,b666a57c42282c65ded1bcba6b8ba43d
2060,LuckyRedeem,2542,e10e92d6a90d99c1f08d5914923533e0
2061,AltekMistres,2536,ca37aaead5783c50e41796922c53853e
2062,DemonAngelix,2510,1dd81207c79329691b74f807581af564
2063,KiraBismarck,2499,f2a6f0f4e62f2486d4ca980b8629f377
2064,NamiHan,2460,5ac18c04a6203a079ada3beda1b80b89
2065,Missesss,2378,ce3a1a97405a53fe4f9c8bcf4d7f2a15
2066,LurkingSins,2366,ac52298477edf8f57e7b55629bab5a53
2067,Kulbam,2359,10d8ee1ea625fa40d5bad104af8fc987
2068,SinfulCream,2289,d8fcda29e9056e116d7e32c748e596b4
2069,BBBBin1,2277,a44cbccb87aea04b12cc0c8e3fbfe198
2070,Zebedina321,2258,72d8ba6b55151029a00586247ce6adda
2071,Clairis3,2255,fd0c19977c9a90bee2361404e01ca8ca
2072,EvilSayerV,2216,656845227062c6174149ecf0609dc069
2073,MrsIsi,2138,4ae0f1c0f9b38d6de117ece637a9d403
2074,Demory,2126,ce141a35006625ccd15a73cba9593442
2075,ScarletMist,2123,a32d0f17c4b0409644f4de899ca6be00
2076,Alicella,2120,20bdf9377a66f953358d44dcc372885e
2077,NpcAlbedo,2107,1eb1ec689b1fc092eab848cb88062700
2078,yesinjung,2098,4a468de74924f1fdc06fa313b3b8bd7b
2079,DeitySloth,2097,f4201aa3cea970036cf324e97262b1f6
2080,EtnaOfAzure,2004,7ba409fdf646eddd877a48fe7a996144
2081,Astucious,1986,b471b7ffaa04da9f88df2bb093a28d4f
2082,Amduscia,1924,c5e5fe18a84063f9339a7ccfc646f8bb
2083,Dedalus,1920,9563b779116c6bf23f80c751ced3ce52
2084,MistressJade,1859,cc0610ef569d6640334426a9813e2bea
2085,Cineran,1849,64a2f1c86c0cdf8a95ef89d5b6e54537
2086,SanValentino,1818,fbfeb138da5d0c5f7484d966785e5796
2087,Christillia,1817,490cc75dc1e8e7a90b69fdd4d83e8235
2088,Lust94,1787,f0416573c45f37e6d710b1cd3de95ca0
2089,VelvetScythe,1775,5deb15f0102b9cb55fbd60bff462b2b8
2090,QueenNia,1748,d9053296d0116219d42c3163949602ce
2091,KooriNoAkuma,1743,ed05542d392a6be36733ab8b6bcb694c
2092,Vigs,1736,733cb8c484f091f534d1e899e741058b
2093,Arelsi,1727,79d58631155642ec7b458409ebfd4036
2094,2Crazy4Me,1706,1a94acd7edc1ab38dbda98681dd5e3b2
2095,ToshiiKaine,1690,c414922e8c0e0103e91a255efbc1bdf0
2096,SendMeFanArt,1675,c09b9117456c7af264be1e83da0f43a6
2097,Perial,1643,155994dda2738a963fe15b0cb3c36ed6
2098,AnalPricest,1598,e98b4d719babad98be1bfcf58da99f23
2099,Sami2531,1566,8c5c39140e6c776ca3e157034d472060
2100,LeyOnBedo,1547,f3df2285d4294aa0635999fd0a6bba58
2101,SSS444,1518,5a42a5afed23395ae099a461a6177451
2102,DarkMistres1,1474,56e7e481979a582e0f4bccdbd11d3177
2103,RedeemSpam,1446,83e3df104a76a4be202bc4e848e6d30a
2104,Zarakynel,1427,968d1e0746f2706709448914e0c0b891
2105,MyNymphSis,1412,08c48dfee907a33fa6f34c7e1e2916af
2106,MysterySin,1384,f8172b21d42caa26988ec80c8788a2a7
2107,on9Kam,1338,3ed854fe2c30df87fe6eef77b0ccd308
2108,AngelLilith,1298,02d0567594fcdaeade02ba5c271c8578
2109,4yiDog,1289,f3136636ed9e45786e8077e70ef50ef1
2110,Invidias,1251,1f656b2914d9ebe605ea32dfe7d62b47
2111,Ashitas,1230,5d3bdf425282b9cb6a86268d84ba1e1d
2112,Aesy,1197,0cedc68ee479158c0ee27922993f87fe
2113,Mikicchi,1193,6e7d3111df2619bd4d8943fb7ffd5777
2114,Astrvia,1189,a4b98c98e26882ef9fce2ba55716b73e
2115,lSetl,1184,79ced71122fcde92fd4ce619bb525298
2116,Ecosensei,1173,8fdf53afe424d16d933b1f0313e8d87d
2117,DarkNotLight,1170,36803fd675010ff9c43568d3abc979e2
2118,Umeharu,1124,df66310398d138ab9a65214066caf341
2119,Mistresia,1105,f71360df1831ad4d686bce3c8e0a93fa
2120,PriestChic,1055,1427e4f694dcfe1fe0240bfef8d25cbb
2121,ShadowAer,1027,13d8907d66c1d56e3708d270779b6575
2122,ZZmistress,1014,a1053e09312dcbbc8b5f6784225b1212
2123,acenor,1009,94946d878a6eedb7e8c05e960c3e7200
2124,McAstrid,949,63399c58403de0289f2ec599dc275667
2125,frofrorobert,942,04a95c411d9bca6b3aeaabe5679303dc
2126,PressF2Win,927,1e5fc225f9f72c10dac88f8875f781c9
2127,ChapterOne,912,a417365c46b55588d00b9110fe0ba44f
2128,Tsukaia,908,414425367270f3ad9f706a8c441b73ce
2129,SlimeGod,883,b0ec14f890e1af09291b102bdfc5d173
2130,7DeadlyKinks,882,fa1199b33c71b2970183f222174f035a
2131,CurseOfSin,880,431d1f21f004752fd8c86f9aff2fd993
2132,Duellonae,855,3a248f1aaac6c5abb311729240d9320d
2133,BichiMistres,852,eab5282daaf6463fff98a514fa877844
2134,DivineDoubt,841,f4e244b3c4c5a2e6ca643a5185cb3359
2135,YorigamShino,829,e60a9da9d5454a08c215bb1fd17b5c75
2136,Sintam,824,c16e944ca03c2eb6cc9d68a084a1d3b2
2137,MsTanya,805,572d48ec9abe6b153538501e0a0e33b6
2138,MissEnigma,784,d820698f0e161ab9a3707a06d17e87a3
2139,mistress12a,763,75db69506d14ee129092c76d51cb109e
2140,Doomness,758,b0c7dc6459ee1f86ba5deca644c8c4b3
2141,zDragona,741,99e5c797b16aaca74898c35b5302a60e
2142,FlashReika,736,6f9171fe21537bd88d331ec31eb0e206
2143,Yuste,723,1bf62f1c9febe102acb2dfbdf3a40910
2144,landynobasan,709,d3b59b529d06c7954dedb581aa1c0783
2145,KniLunAus,699,dd59af50380d725ac2a1a3ed22a0d08f
2146,TrueMerlin,641,7c6bab0c3cc4f29b217bea604b02d149
2147,Knitter,630,84052cb386e053533f93e61317985aed
2148,xSuccyx,595,cc347cf4b951344e5e8dd195ab909806
2149,sinsayerfff,589,5dc8d27a17c6297a0cc809044ee862ab
2150,Miutsumi,588,952def5351e0560783d4c06a3a35749c
2151,withA,533,7e68d09b630952266b708aae6df35777
2152,EvaGren,533,e33051969812e91db1487484ace6054b
2153,Skogsfru,533,5ae532971977d1e9ef284e6b2843b304
2154,LazyAvenger,505,a7872cf296a8ec8babc02305c937d25c
2155,Sin4Aunt,461,30b226fc0ebe746c0d9c9cd697f1ad8b
2156,AmaiScythe,453,faf2bd264838849a95e7d67af453703d
2157,SoulProtectr,448,e9bee45bb4bd6486464b2dd24e8b4735
2158,Regdaria,384,a59f5740a68dff09c43a3abff654664a
2159,Khawori,315,efbc3c9025118a80b496e3b3fda350ce
2160,halfkale,315,52772efc8abb88921cd68dc184d4a59e
2161,Demyrna,315,f80d5d1e1510b36b959c64c51f887dde
2162,FourCai,315,2534e6c94f41456818b56b07c32b3fe5
2163,COCOisDead,315,e33cad69ea363a83fcf9007eb4d73123
2164,PIFMRedeemer,315,f0995bb62b7e6fe252d1f39a370f32e1
2165,NSSB,315,5ac94777efebabfeb101e63354634581
2166,Andreat,287,52ad60b63c926c59c993b3ad8aaba686
2167,ChurchSkank,268,3ea18e65b6ed7acaba02dd94e2832e4f
2168,yeo21,72,098001b2b21b7a0e3fedb56ad3bc08d2
2169,KisekiUchiha,12,c7d8e3087eb0c10b09b7c42cce1e2d95
